*SPEF "ieee 1481-1999"
*DESIGN "tt_um_prasa_droop_monitor"
*DATE "16:55:55 Tuesday September 29, 2026"
*VENDOR "The OpenROAD Project"
*PROGRAM "OpenROAD"
*VERSION "dcf36133a369abc8f3c5e5738cd4d82e4903c0e0"
*DESIGN_FLOW "NAME_SCOPE LOCAL" "PIN_CAP NONE"
*DIVIDER /
*DELIMITER :
*BUS_DELIMITER []
*T_UNIT 1 NS
*C_UNIT 1 PF
*R_UNIT 1 OHM
*L_UNIT 1 HENRY

*NAME_MAP
*3 clk
*4 ena
*5 rst_n
*6 ui_in[0]
*7 ui_in[1]
*8 ui_in[2]
*9 ui_in[3]
*10 ui_in[4]
*11 ui_in[5]
*12 ui_in[6]
*13 ui_in[7]
*14 uio_in[0]
*15 uio_in[1]
*16 uio_in[2]
*17 uio_in[3]
*18 uio_in[4]
*19 uio_in[5]
*20 uio_in[6]
*21 uio_in[7]
*22 net17
*23 net18
*24 net19
*25 net20
*26 net21
*27 net22
*28 net23
*29 net24
*30 net
*31 net3
*32 net4
*33 net5
*34 net6
*35 net7
*36 net8
*37 net9
*38 uo_out[0]
*39 net10
*40 net11
*41 net12
*42 net13
*43 net14
*44 net15
*45 net16
*46 delay\[0\]
*47 delay\[10\]
*48 delay\[11\]
*49 delay\[12\]
*50 delay\[13\]
*51 delay\[14\]
*52 delay\[15\]
*53 delay\[16\]
*54 delay\[17\]
*55 delay\[18\]
*56 delay\[19\]
*57 delay\[1\]
*58 delay\[20\]
*59 delay\[21\]
*60 delay\[22\]
*61 delay\[23\]
*62 delay\[24\]
*63 delay\[25\]
*64 delay\[26\]
*65 delay\[27\]
*66 delay\[28\]
*67 delay\[29\]
*68 delay\[2\]
*69 delay\[30\]
*70 delay\[31\]
*71 delay\[32\]
*72 delay\[3\]
*73 delay\[4\]
*74 delay\[5\]
*75 delay\[6\]
*76 delay\[7\]
*77 delay\[8\]
*78 delay\[9\]
*79 net1
*80 net2
*81 DELAY_CHAIN\[0\]\.u_inv
*82 DELAY_CHAIN\[10\]\.u_inv
*83 DELAY_CHAIN\[11\]\.u_inv
*84 DELAY_CHAIN\[12\]\.u_inv
*85 DELAY_CHAIN\[13\]\.u_inv
*86 DELAY_CHAIN\[14\]\.u_inv
*87 DELAY_CHAIN\[15\]\.u_inv
*88 DELAY_CHAIN\[16\]\.u_inv
*89 DELAY_CHAIN\[17\]\.u_inv
*90 DELAY_CHAIN\[18\]\.u_inv
*91 DELAY_CHAIN\[19\]\.u_inv
*92 DELAY_CHAIN\[1\]\.u_inv
*93 DELAY_CHAIN\[20\]\.u_inv
*94 DELAY_CHAIN\[21\]\.u_inv
*95 DELAY_CHAIN\[22\]\.u_inv
*96 DELAY_CHAIN\[23\]\.u_inv
*97 DELAY_CHAIN\[24\]\.u_inv
*98 DELAY_CHAIN\[25\]\.u_inv
*99 DELAY_CHAIN\[26\]\.u_inv
*100 DELAY_CHAIN\[27\]\.u_inv
*101 DELAY_CHAIN\[28\]\.u_inv
*102 DELAY_CHAIN\[29\]\.u_inv
*103 DELAY_CHAIN\[2\]\.u_inv
*104 DELAY_CHAIN\[30\]\.u_inv
*105 DELAY_CHAIN\[31\]\.u_inv
*106 DELAY_CHAIN\[3\]\.u_inv
*107 DELAY_CHAIN\[4\]\.u_inv
*108 DELAY_CHAIN\[5\]\.u_inv
*109 DELAY_CHAIN\[6\]\.u_inv
*110 DELAY_CHAIN\[7\]\.u_inv
*111 DELAY_CHAIN\[8\]\.u_inv
*112 DELAY_CHAIN\[9\]\.u_inv
*113 FILLER_0_100
*114 FILLER_0_103
*115 FILLER_0_106
*116 FILLER_0_109
*117 FILLER_0_113
*118 FILLER_0_116
*119 FILLER_0_119
*120 FILLER_0_12
*121 FILLER_0_122
*122 FILLER_0_125
*123 FILLER_0_128
*124 FILLER_0_131
*125 FILLER_0_134
*126 FILLER_0_137
*127 FILLER_0_141
*128 FILLER_0_144
*129 FILLER_0_147
*130 FILLER_0_15
*131 FILLER_0_150
*132 FILLER_0_153
*133 FILLER_0_156
*134 FILLER_0_159
*135 FILLER_0_162
*136 FILLER_0_165
*137 FILLER_0_169
*138 FILLER_0_172
*139 FILLER_0_175
*140 FILLER_0_178
*141 FILLER_0_18
*142 FILLER_0_181
*143 FILLER_0_184
*144 FILLER_0_187
*145 FILLER_0_190
*146 FILLER_0_193
*147 FILLER_0_197
*148 FILLER_0_200
*149 FILLER_0_203
*150 FILLER_0_206
*151 FILLER_0_209
*152 FILLER_0_21
*153 FILLER_0_212
*154 FILLER_0_215
*155 FILLER_0_218
*156 FILLER_0_221
*157 FILLER_0_225
*158 FILLER_0_228
*159 FILLER_0_231
*160 FILLER_0_234
*161 FILLER_0_237
*162 FILLER_0_24
*163 FILLER_0_240
*164 FILLER_0_243
*165 FILLER_0_246
*166 FILLER_0_249
*167 FILLER_0_253
*168 FILLER_0_256
*169 FILLER_0_259
*170 FILLER_0_262
*171 FILLER_0_265
*172 FILLER_0_268
*173 FILLER_0_27
*174 FILLER_0_271
*175 FILLER_0_274
*176 FILLER_0_277
*177 FILLER_0_281
*178 FILLER_0_284
*179 FILLER_0_287
*180 FILLER_0_29
*181 FILLER_0_290
*182 FILLER_0_293
*183 FILLER_0_296
*184 FILLER_0_299
*185 FILLER_0_3
*186 FILLER_0_302
*187 FILLER_0_305
*188 FILLER_0_309
*189 FILLER_0_312
*190 FILLER_0_315
*191 FILLER_0_318
*192 FILLER_0_32
*193 FILLER_0_321
*194 FILLER_0_324
*195 FILLER_0_327
*196 FILLER_0_330
*197 FILLER_0_333
*198 FILLER_0_35
*199 FILLER_0_38
*200 FILLER_0_41
*201 FILLER_0_44
*202 FILLER_0_47
*203 FILLER_0_50
*204 FILLER_0_53
*205 FILLER_0_57
*206 FILLER_0_6
*207 FILLER_0_60
*208 FILLER_0_63
*209 FILLER_0_66
*210 FILLER_0_69
*211 FILLER_0_72
*212 FILLER_0_75
*213 FILLER_0_78
*214 FILLER_0_81
*215 FILLER_0_85
*216 FILLER_0_88
*217 FILLER_0_9
*218 FILLER_0_91
*219 FILLER_0_94
*220 FILLER_0_97
*221 FILLER_10_100
*222 FILLER_10_103
*223 FILLER_10_106
*224 FILLER_10_109
*225 FILLER_10_112
*226 FILLER_10_115
*227 FILLER_10_118
*228 FILLER_10_12
*229 FILLER_10_121
*230 FILLER_10_124
*231 FILLER_10_127
*232 FILLER_10_130
*233 FILLER_10_133
*234 FILLER_10_136
*235 FILLER_10_139
*236 FILLER_10_141
*237 FILLER_10_144
*238 FILLER_10_147
*239 FILLER_10_15
*240 FILLER_10_150
*241 FILLER_10_153
*242 FILLER_10_156
*243 FILLER_10_159
*244 FILLER_10_162
*245 FILLER_10_165
*246 FILLER_10_168
*247 FILLER_10_171
*248 FILLER_10_174
*249 FILLER_10_177
*250 FILLER_10_18
*251 FILLER_10_180
*252 FILLER_10_183
*253 FILLER_10_186
*254 FILLER_10_189
*255 FILLER_10_192
*256 FILLER_10_195
*257 FILLER_10_197
*258 FILLER_10_200
*259 FILLER_10_203
*260 FILLER_10_206
*261 FILLER_10_209
*262 FILLER_10_21
*263 FILLER_10_212
*264 FILLER_10_215
*265 FILLER_10_218
*266 FILLER_10_221
*267 FILLER_10_224
*268 FILLER_10_227
*269 FILLER_10_230
*270 FILLER_10_233
*271 FILLER_10_236
*272 FILLER_10_239
*273 FILLER_10_24
*274 FILLER_10_242
*275 FILLER_10_245
*276 FILLER_10_248
*277 FILLER_10_251
*278 FILLER_10_253
*279 FILLER_10_256
*280 FILLER_10_259
*281 FILLER_10_262
*282 FILLER_10_265
*283 FILLER_10_268
*284 FILLER_10_27
*285 FILLER_10_271
*286 FILLER_10_274
*287 FILLER_10_277
*288 FILLER_10_280
*289 FILLER_10_283
*290 FILLER_10_286
*291 FILLER_10_289
*292 FILLER_10_29
*293 FILLER_10_292
*294 FILLER_10_295
*295 FILLER_10_298
*296 FILLER_10_3
*297 FILLER_10_301
*298 FILLER_10_304
*299 FILLER_10_307
*300 FILLER_10_309
*301 FILLER_10_312
*302 FILLER_10_315
*303 FILLER_10_318
*304 FILLER_10_32
*305 FILLER_10_321
*306 FILLER_10_324
*307 FILLER_10_327
*308 FILLER_10_330
*309 FILLER_10_333
*310 FILLER_10_35
*311 FILLER_10_38
*312 FILLER_10_41
*313 FILLER_10_44
*314 FILLER_10_47
*315 FILLER_10_50
*316 FILLER_10_53
*317 FILLER_10_56
*318 FILLER_10_59
*319 FILLER_10_6
*320 FILLER_10_62
*321 FILLER_10_65
*322 FILLER_10_68
*323 FILLER_10_71
*324 FILLER_10_74
*325 FILLER_10_77
*326 FILLER_10_80
*327 FILLER_10_83
*328 FILLER_10_85
*329 FILLER_10_88
*330 FILLER_10_9
*331 FILLER_10_91
*332 FILLER_10_94
*333 FILLER_10_97
*334 FILLER_11_102
*335 FILLER_11_105
*336 FILLER_11_108
*337 FILLER_11_111
*338 FILLER_11_113
*339 FILLER_11_116
*340 FILLER_11_119
*341 FILLER_11_12
*342 FILLER_11_122
*343 FILLER_11_125
*344 FILLER_11_128
*345 FILLER_11_131
*346 FILLER_11_134
*347 FILLER_11_137
*348 FILLER_11_140
*349 FILLER_11_143
*350 FILLER_11_146
*351 FILLER_11_149
*352 FILLER_11_15
*353 FILLER_11_152
*354 FILLER_11_155
*355 FILLER_11_158
*356 FILLER_11_161
*357 FILLER_11_164
*358 FILLER_11_167
*359 FILLER_11_169
*360 FILLER_11_172
*361 FILLER_11_175
*362 FILLER_11_178
*363 FILLER_11_18
*364 FILLER_11_181
*365 FILLER_11_184
*366 FILLER_11_187
*367 FILLER_11_190
*368 FILLER_11_193
*369 FILLER_11_196
*370 FILLER_11_199
*371 FILLER_11_202
*372 FILLER_11_205
*373 FILLER_11_208
*374 FILLER_11_21
*375 FILLER_11_211
*376 FILLER_11_214
*377 FILLER_11_217
*378 FILLER_11_220
*379 FILLER_11_223
*380 FILLER_11_225
*381 FILLER_11_228
*382 FILLER_11_231
*383 FILLER_11_234
*384 FILLER_11_237
*385 FILLER_11_24
*386 FILLER_11_240
*387 FILLER_11_243
*388 FILLER_11_246
*389 FILLER_11_249
*390 FILLER_11_252
*391 FILLER_11_255
*392 FILLER_11_258
*393 FILLER_11_261
*394 FILLER_11_264
*395 FILLER_11_267
*396 FILLER_11_27
*397 FILLER_11_270
*398 FILLER_11_273
*399 FILLER_11_276
*400 FILLER_11_279
*401 FILLER_11_281
*402 FILLER_11_284
*403 FILLER_11_287
*404 FILLER_11_290
*405 FILLER_11_293
*406 FILLER_11_296
*407 FILLER_11_299
*408 FILLER_11_3
*409 FILLER_11_30
*410 FILLER_11_302
*411 FILLER_11_305
*412 FILLER_11_308
*413 FILLER_11_311
*414 FILLER_11_314
*415 FILLER_11_317
*416 FILLER_11_320
*417 FILLER_11_323
*418 FILLER_11_326
*419 FILLER_11_329
*420 FILLER_11_33
*421 FILLER_11_332
*422 FILLER_11_36
*423 FILLER_11_39
*424 FILLER_11_42
*425 FILLER_11_45
*426 FILLER_11_48
*427 FILLER_11_51
*428 FILLER_11_54
*429 FILLER_11_57
*430 FILLER_11_6
*431 FILLER_11_60
*432 FILLER_11_63
*433 FILLER_11_66
*434 FILLER_11_69
*435 FILLER_11_72
*436 FILLER_11_75
*437 FILLER_11_78
*438 FILLER_11_81
*439 FILLER_11_84
*440 FILLER_11_87
*441 FILLER_11_9
*442 FILLER_11_90
*443 FILLER_11_93
*444 FILLER_11_96
*445 FILLER_11_99
*446 FILLER_12_100
*447 FILLER_12_103
*448 FILLER_12_106
*449 FILLER_12_109
*450 FILLER_12_112
*451 FILLER_12_115
*452 FILLER_12_118
*453 FILLER_12_12
*454 FILLER_12_121
*455 FILLER_12_124
*456 FILLER_12_127
*457 FILLER_12_130
*458 FILLER_12_133
*459 FILLER_12_136
*460 FILLER_12_139
*461 FILLER_12_141
*462 FILLER_12_144
*463 FILLER_12_147
*464 FILLER_12_15
*465 FILLER_12_150
*466 FILLER_12_153
*467 FILLER_12_156
*468 FILLER_12_159
*469 FILLER_12_162
*470 FILLER_12_165
*471 FILLER_12_168
*472 FILLER_12_171
*473 FILLER_12_174
*474 FILLER_12_177
*475 FILLER_12_18
*476 FILLER_12_180
*477 FILLER_12_183
*478 FILLER_12_186
*479 FILLER_12_189
*480 FILLER_12_192
*481 FILLER_12_195
*482 FILLER_12_197
*483 FILLER_12_200
*484 FILLER_12_203
*485 FILLER_12_206
*486 FILLER_12_209
*487 FILLER_12_21
*488 FILLER_12_212
*489 FILLER_12_215
*490 FILLER_12_218
*491 FILLER_12_221
*492 FILLER_12_224
*493 FILLER_12_227
*494 FILLER_12_230
*495 FILLER_12_233
*496 FILLER_12_236
*497 FILLER_12_239
*498 FILLER_12_24
*499 FILLER_12_242
*500 FILLER_12_245
*501 FILLER_12_248
*502 FILLER_12_251
*503 FILLER_12_253
*504 FILLER_12_256
*505 FILLER_12_259
*506 FILLER_12_262
*507 FILLER_12_265
*508 FILLER_12_268
*509 FILLER_12_27
*510 FILLER_12_271
*511 FILLER_12_274
*512 FILLER_12_277
*513 FILLER_12_280
*514 FILLER_12_283
*515 FILLER_12_286
*516 FILLER_12_289
*517 FILLER_12_29
*518 FILLER_12_292
*519 FILLER_12_295
*520 FILLER_12_298
*521 FILLER_12_3
*522 FILLER_12_301
*523 FILLER_12_304
*524 FILLER_12_307
*525 FILLER_12_309
*526 FILLER_12_312
*527 FILLER_12_315
*528 FILLER_12_318
*529 FILLER_12_32
*530 FILLER_12_321
*531 FILLER_12_324
*532 FILLER_12_327
*533 FILLER_12_330
*534 FILLER_12_333
*535 FILLER_12_35
*536 FILLER_12_38
*537 FILLER_12_41
*538 FILLER_12_44
*539 FILLER_12_47
*540 FILLER_12_50
*541 FILLER_12_53
*542 FILLER_12_56
*543 FILLER_12_59
*544 FILLER_12_6
*545 FILLER_12_62
*546 FILLER_12_65
*547 FILLER_12_68
*548 FILLER_12_71
*549 FILLER_12_74
*550 FILLER_12_77
*551 FILLER_12_80
*552 FILLER_12_83
*553 FILLER_12_85
*554 FILLER_12_88
*555 FILLER_12_9
*556 FILLER_12_91
*557 FILLER_12_94
*558 FILLER_12_97
*559 FILLER_13_102
*560 FILLER_13_105
*561 FILLER_13_108
*562 FILLER_13_111
*563 FILLER_13_113
*564 FILLER_13_116
*565 FILLER_13_119
*566 FILLER_13_12
*567 FILLER_13_122
*568 FILLER_13_125
*569 FILLER_13_128
*570 FILLER_13_131
*571 FILLER_13_134
*572 FILLER_13_137
*573 FILLER_13_140
*574 FILLER_13_143
*575 FILLER_13_146
*576 FILLER_13_149
*577 FILLER_13_15
*578 FILLER_13_152
*579 FILLER_13_155
*580 FILLER_13_158
*581 FILLER_13_161
*582 FILLER_13_164
*583 FILLER_13_167
*584 FILLER_13_169
*585 FILLER_13_172
*586 FILLER_13_175
*587 FILLER_13_178
*588 FILLER_13_18
*589 FILLER_13_181
*590 FILLER_13_184
*591 FILLER_13_187
*592 FILLER_13_190
*593 FILLER_13_193
*594 FILLER_13_196
*595 FILLER_13_199
*596 FILLER_13_202
*597 FILLER_13_205
*598 FILLER_13_208
*599 FILLER_13_21
*600 FILLER_13_211
*601 FILLER_13_214
*602 FILLER_13_217
*603 FILLER_13_220
*604 FILLER_13_223
*605 FILLER_13_225
*606 FILLER_13_228
*607 FILLER_13_231
*608 FILLER_13_234
*609 FILLER_13_237
*610 FILLER_13_24
*611 FILLER_13_240
*612 FILLER_13_243
*613 FILLER_13_246
*614 FILLER_13_249
*615 FILLER_13_252
*616 FILLER_13_255
*617 FILLER_13_258
*618 FILLER_13_261
*619 FILLER_13_264
*620 FILLER_13_267
*621 FILLER_13_27
*622 FILLER_13_270
*623 FILLER_13_273
*624 FILLER_13_276
*625 FILLER_13_279
*626 FILLER_13_281
*627 FILLER_13_284
*628 FILLER_13_287
*629 FILLER_13_290
*630 FILLER_13_293
*631 FILLER_13_296
*632 FILLER_13_299
*633 FILLER_13_3
*634 FILLER_13_30
*635 FILLER_13_302
*636 FILLER_13_305
*637 FILLER_13_308
*638 FILLER_13_311
*639 FILLER_13_314
*640 FILLER_13_317
*641 FILLER_13_320
*642 FILLER_13_323
*643 FILLER_13_326
*644 FILLER_13_329
*645 FILLER_13_33
*646 FILLER_13_332
*647 FILLER_13_36
*648 FILLER_13_39
*649 FILLER_13_42
*650 FILLER_13_45
*651 FILLER_13_48
*652 FILLER_13_51
*653 FILLER_13_54
*654 FILLER_13_57
*655 FILLER_13_6
*656 FILLER_13_60
*657 FILLER_13_63
*658 FILLER_13_66
*659 FILLER_13_69
*660 FILLER_13_72
*661 FILLER_13_75
*662 FILLER_13_78
*663 FILLER_13_81
*664 FILLER_13_84
*665 FILLER_13_87
*666 FILLER_13_9
*667 FILLER_13_90
*668 FILLER_13_93
*669 FILLER_13_96
*670 FILLER_13_99
*671 FILLER_14_100
*672 FILLER_14_103
*673 FILLER_14_106
*674 FILLER_14_109
*675 FILLER_14_112
*676 FILLER_14_115
*677 FILLER_14_118
*678 FILLER_14_12
*679 FILLER_14_121
*680 FILLER_14_124
*681 FILLER_14_127
*682 FILLER_14_130
*683 FILLER_14_133
*684 FILLER_14_136
*685 FILLER_14_139
*686 FILLER_14_141
*687 FILLER_14_144
*688 FILLER_14_147
*689 FILLER_14_15
*690 FILLER_14_150
*691 FILLER_14_153
*692 FILLER_14_156
*693 FILLER_14_159
*694 FILLER_14_162
*695 FILLER_14_165
*696 FILLER_14_168
*697 FILLER_14_171
*698 FILLER_14_174
*699 FILLER_14_177
*700 FILLER_14_18
*701 FILLER_14_180
*702 FILLER_14_183
*703 FILLER_14_186
*704 FILLER_14_189
*705 FILLER_14_192
*706 FILLER_14_195
*707 FILLER_14_197
*708 FILLER_14_200
*709 FILLER_14_203
*710 FILLER_14_206
*711 FILLER_14_209
*712 FILLER_14_21
*713 FILLER_14_212
*714 FILLER_14_215
*715 FILLER_14_218
*716 FILLER_14_221
*717 FILLER_14_224
*718 FILLER_14_227
*719 FILLER_14_230
*720 FILLER_14_233
*721 FILLER_14_236
*722 FILLER_14_239
*723 FILLER_14_24
*724 FILLER_14_242
*725 FILLER_14_245
*726 FILLER_14_248
*727 FILLER_14_251
*728 FILLER_14_253
*729 FILLER_14_256
*730 FILLER_14_259
*731 FILLER_14_262
*732 FILLER_14_265
*733 FILLER_14_268
*734 FILLER_14_27
*735 FILLER_14_271
*736 FILLER_14_274
*737 FILLER_14_277
*738 FILLER_14_280
*739 FILLER_14_283
*740 FILLER_14_286
*741 FILLER_14_289
*742 FILLER_14_29
*743 FILLER_14_292
*744 FILLER_14_295
*745 FILLER_14_298
*746 FILLER_14_3
*747 FILLER_14_301
*748 FILLER_14_304
*749 FILLER_14_307
*750 FILLER_14_309
*751 FILLER_14_312
*752 FILLER_14_315
*753 FILLER_14_318
*754 FILLER_14_32
*755 FILLER_14_321
*756 FILLER_14_324
*757 FILLER_14_327
*758 FILLER_14_330
*759 FILLER_14_333
*760 FILLER_14_35
*761 FILLER_14_38
*762 FILLER_14_41
*763 FILLER_14_44
*764 FILLER_14_47
*765 FILLER_14_50
*766 FILLER_14_53
*767 FILLER_14_56
*768 FILLER_14_59
*769 FILLER_14_6
*770 FILLER_14_62
*771 FILLER_14_65
*772 FILLER_14_68
*773 FILLER_14_71
*774 FILLER_14_74
*775 FILLER_14_77
*776 FILLER_14_80
*777 FILLER_14_83
*778 FILLER_14_85
*779 FILLER_14_88
*780 FILLER_14_9
*781 FILLER_14_91
*782 FILLER_14_94
*783 FILLER_14_97
*784 FILLER_15_102
*785 FILLER_15_105
*786 FILLER_15_108
*787 FILLER_15_111
*788 FILLER_15_113
*789 FILLER_15_116
*790 FILLER_15_119
*791 FILLER_15_12
*792 FILLER_15_122
*793 FILLER_15_125
*794 FILLER_15_128
*795 FILLER_15_131
*796 FILLER_15_134
*797 FILLER_15_137
*798 FILLER_15_140
*799 FILLER_15_143
*800 FILLER_15_146
*801 FILLER_15_149
*802 FILLER_15_15
*803 FILLER_15_152
*804 FILLER_15_155
*805 FILLER_15_158
*806 FILLER_15_161
*807 FILLER_15_164
*808 FILLER_15_167
*809 FILLER_15_169
*810 FILLER_15_172
*811 FILLER_15_175
*812 FILLER_15_178
*813 FILLER_15_18
*814 FILLER_15_181
*815 FILLER_15_184
*816 FILLER_15_187
*817 FILLER_15_190
*818 FILLER_15_193
*819 FILLER_15_196
*820 FILLER_15_199
*821 FILLER_15_202
*822 FILLER_15_205
*823 FILLER_15_208
*824 FILLER_15_21
*825 FILLER_15_211
*826 FILLER_15_214
*827 FILLER_15_217
*828 FILLER_15_220
*829 FILLER_15_223
*830 FILLER_15_225
*831 FILLER_15_228
*832 FILLER_15_231
*833 FILLER_15_234
*834 FILLER_15_237
*835 FILLER_15_24
*836 FILLER_15_240
*837 FILLER_15_243
*838 FILLER_15_246
*839 FILLER_15_249
*840 FILLER_15_252
*841 FILLER_15_255
*842 FILLER_15_258
*843 FILLER_15_261
*844 FILLER_15_264
*845 FILLER_15_267
*846 FILLER_15_27
*847 FILLER_15_270
*848 FILLER_15_273
*849 FILLER_15_276
*850 FILLER_15_279
*851 FILLER_15_281
*852 FILLER_15_284
*853 FILLER_15_287
*854 FILLER_15_290
*855 FILLER_15_293
*856 FILLER_15_296
*857 FILLER_15_299
*858 FILLER_15_3
*859 FILLER_15_30
*860 FILLER_15_302
*861 FILLER_15_305
*862 FILLER_15_308
*863 FILLER_15_311
*864 FILLER_15_314
*865 FILLER_15_317
*866 FILLER_15_320
*867 FILLER_15_323
*868 FILLER_15_326
*869 FILLER_15_329
*870 FILLER_15_33
*871 FILLER_15_332
*872 FILLER_15_36
*873 FILLER_15_39
*874 FILLER_15_42
*875 FILLER_15_45
*876 FILLER_15_48
*877 FILLER_15_51
*878 FILLER_15_54
*879 FILLER_15_57
*880 FILLER_15_6
*881 FILLER_15_60
*882 FILLER_15_63
*883 FILLER_15_66
*884 FILLER_15_69
*885 FILLER_15_72
*886 FILLER_15_75
*887 FILLER_15_78
*888 FILLER_15_81
*889 FILLER_15_84
*890 FILLER_15_87
*891 FILLER_15_9
*892 FILLER_15_90
*893 FILLER_15_93
*894 FILLER_15_96
*895 FILLER_15_99
*896 FILLER_16_100
*897 FILLER_16_103
*898 FILLER_16_106
*899 FILLER_16_109
*900 FILLER_16_112
*901 FILLER_16_115
*902 FILLER_16_118
*903 FILLER_16_12
*904 FILLER_16_121
*905 FILLER_16_124
*906 FILLER_16_127
*907 FILLER_16_130
*908 FILLER_16_133
*909 FILLER_16_136
*910 FILLER_16_139
*911 FILLER_16_141
*912 FILLER_16_144
*913 FILLER_16_147
*914 FILLER_16_15
*915 FILLER_16_150
*916 FILLER_16_153
*917 FILLER_16_156
*918 FILLER_16_159
*919 FILLER_16_162
*920 FILLER_16_165
*921 FILLER_16_168
*922 FILLER_16_171
*923 FILLER_16_174
*924 FILLER_16_177
*925 FILLER_16_18
*926 FILLER_16_180
*927 FILLER_16_183
*928 FILLER_16_186
*929 FILLER_16_189
*930 FILLER_16_192
*931 FILLER_16_195
*932 FILLER_16_197
*933 FILLER_16_200
*934 FILLER_16_203
*935 FILLER_16_206
*936 FILLER_16_209
*937 FILLER_16_21
*938 FILLER_16_212
*939 FILLER_16_215
*940 FILLER_16_218
*941 FILLER_16_221
*942 FILLER_16_224
*943 FILLER_16_227
*944 FILLER_16_230
*945 FILLER_16_233
*946 FILLER_16_236
*947 FILLER_16_239
*948 FILLER_16_24
*949 FILLER_16_242
*950 FILLER_16_245
*951 FILLER_16_248
*952 FILLER_16_251
*953 FILLER_16_253
*954 FILLER_16_256
*955 FILLER_16_259
*956 FILLER_16_262
*957 FILLER_16_265
*958 FILLER_16_268
*959 FILLER_16_27
*960 FILLER_16_271
*961 FILLER_16_274
*962 FILLER_16_277
*963 FILLER_16_280
*964 FILLER_16_283
*965 FILLER_16_286
*966 FILLER_16_289
*967 FILLER_16_29
*968 FILLER_16_292
*969 FILLER_16_295
*970 FILLER_16_298
*971 FILLER_16_3
*972 FILLER_16_301
*973 FILLER_16_304
*974 FILLER_16_307
*975 FILLER_16_309
*976 FILLER_16_312
*977 FILLER_16_315
*978 FILLER_16_318
*979 FILLER_16_32
*980 FILLER_16_321
*981 FILLER_16_324
*982 FILLER_16_327
*983 FILLER_16_330
*984 FILLER_16_333
*985 FILLER_16_35
*986 FILLER_16_38
*987 FILLER_16_41
*988 FILLER_16_44
*989 FILLER_16_47
*990 FILLER_16_50
*991 FILLER_16_53
*992 FILLER_16_56
*993 FILLER_16_59
*994 FILLER_16_6
*995 FILLER_16_62
*996 FILLER_16_65
*997 FILLER_16_68
*998 FILLER_16_71
*999 FILLER_16_74
*1000 FILLER_16_77
*1001 FILLER_16_80
*1002 FILLER_16_83
*1003 FILLER_16_85
*1004 FILLER_16_88
*1005 FILLER_16_9
*1006 FILLER_16_91
*1007 FILLER_16_94
*1008 FILLER_16_97
*1009 FILLER_17_102
*1010 FILLER_17_105
*1011 FILLER_17_108
*1012 FILLER_17_111
*1013 FILLER_17_113
*1014 FILLER_17_116
*1015 FILLER_17_119
*1016 FILLER_17_12
*1017 FILLER_17_122
*1018 FILLER_17_125
*1019 FILLER_17_128
*1020 FILLER_17_131
*1021 FILLER_17_134
*1022 FILLER_17_137
*1023 FILLER_17_140
*1024 FILLER_17_143
*1025 FILLER_17_146
*1026 FILLER_17_149
*1027 FILLER_17_15
*1028 FILLER_17_152
*1029 FILLER_17_155
*1030 FILLER_17_158
*1031 FILLER_17_161
*1032 FILLER_17_164
*1033 FILLER_17_167
*1034 FILLER_17_169
*1035 FILLER_17_172
*1036 FILLER_17_175
*1037 FILLER_17_178
*1038 FILLER_17_18
*1039 FILLER_17_181
*1040 FILLER_17_184
*1041 FILLER_17_187
*1042 FILLER_17_190
*1043 FILLER_17_193
*1044 FILLER_17_196
*1045 FILLER_17_199
*1046 FILLER_17_202
*1047 FILLER_17_205
*1048 FILLER_17_208
*1049 FILLER_17_21
*1050 FILLER_17_211
*1051 FILLER_17_214
*1052 FILLER_17_217
*1053 FILLER_17_220
*1054 FILLER_17_223
*1055 FILLER_17_225
*1056 FILLER_17_228
*1057 FILLER_17_231
*1058 FILLER_17_234
*1059 FILLER_17_237
*1060 FILLER_17_24
*1061 FILLER_17_240
*1062 FILLER_17_243
*1063 FILLER_17_246
*1064 FILLER_17_249
*1065 FILLER_17_252
*1066 FILLER_17_255
*1067 FILLER_17_258
*1068 FILLER_17_261
*1069 FILLER_17_264
*1070 FILLER_17_267
*1071 FILLER_17_27
*1072 FILLER_17_270
*1073 FILLER_17_273
*1074 FILLER_17_276
*1075 FILLER_17_279
*1076 FILLER_17_281
*1077 FILLER_17_284
*1078 FILLER_17_287
*1079 FILLER_17_290
*1080 FILLER_17_293
*1081 FILLER_17_296
*1082 FILLER_17_299
*1083 FILLER_17_3
*1084 FILLER_17_30
*1085 FILLER_17_302
*1086 FILLER_17_305
*1087 FILLER_17_308
*1088 FILLER_17_311
*1089 FILLER_17_314
*1090 FILLER_17_317
*1091 FILLER_17_320
*1092 FILLER_17_323
*1093 FILLER_17_326
*1094 FILLER_17_329
*1095 FILLER_17_33
*1096 FILLER_17_332
*1097 FILLER_17_36
*1098 FILLER_17_39
*1099 FILLER_17_42
*1100 FILLER_17_45
*1101 FILLER_17_48
*1102 FILLER_17_51
*1103 FILLER_17_54
*1104 FILLER_17_57
*1105 FILLER_17_6
*1106 FILLER_17_60
*1107 FILLER_17_63
*1108 FILLER_17_66
*1109 FILLER_17_69
*1110 FILLER_17_72
*1111 FILLER_17_75
*1112 FILLER_17_78
*1113 FILLER_17_81
*1114 FILLER_17_84
*1115 FILLER_17_87
*1116 FILLER_17_9
*1117 FILLER_17_90
*1118 FILLER_17_93
*1119 FILLER_17_96
*1120 FILLER_17_99
*1121 FILLER_18_100
*1122 FILLER_18_103
*1123 FILLER_18_106
*1124 FILLER_18_109
*1125 FILLER_18_112
*1126 FILLER_18_115
*1127 FILLER_18_118
*1128 FILLER_18_12
*1129 FILLER_18_121
*1130 FILLER_18_124
*1131 FILLER_18_127
*1132 FILLER_18_130
*1133 FILLER_18_133
*1134 FILLER_18_136
*1135 FILLER_18_139
*1136 FILLER_18_141
*1137 FILLER_18_144
*1138 FILLER_18_147
*1139 FILLER_18_15
*1140 FILLER_18_150
*1141 FILLER_18_153
*1142 FILLER_18_156
*1143 FILLER_18_159
*1144 FILLER_18_162
*1145 FILLER_18_165
*1146 FILLER_18_168
*1147 FILLER_18_171
*1148 FILLER_18_174
*1149 FILLER_18_177
*1150 FILLER_18_18
*1151 FILLER_18_180
*1152 FILLER_18_183
*1153 FILLER_18_186
*1154 FILLER_18_189
*1155 FILLER_18_192
*1156 FILLER_18_195
*1157 FILLER_18_197
*1158 FILLER_18_200
*1159 FILLER_18_203
*1160 FILLER_18_206
*1161 FILLER_18_209
*1162 FILLER_18_21
*1163 FILLER_18_212
*1164 FILLER_18_215
*1165 FILLER_18_218
*1166 FILLER_18_221
*1167 FILLER_18_224
*1168 FILLER_18_227
*1169 FILLER_18_230
*1170 FILLER_18_233
*1171 FILLER_18_236
*1172 FILLER_18_239
*1173 FILLER_18_24
*1174 FILLER_18_242
*1175 FILLER_18_245
*1176 FILLER_18_248
*1177 FILLER_18_251
*1178 FILLER_18_253
*1179 FILLER_18_256
*1180 FILLER_18_259
*1181 FILLER_18_262
*1182 FILLER_18_265
*1183 FILLER_18_268
*1184 FILLER_18_27
*1185 FILLER_18_271
*1186 FILLER_18_274
*1187 FILLER_18_277
*1188 FILLER_18_280
*1189 FILLER_18_283
*1190 FILLER_18_286
*1191 FILLER_18_289
*1192 FILLER_18_29
*1193 FILLER_18_292
*1194 FILLER_18_295
*1195 FILLER_18_298
*1196 FILLER_18_3
*1197 FILLER_18_301
*1198 FILLER_18_304
*1199 FILLER_18_307
*1200 FILLER_18_309
*1201 FILLER_18_312
*1202 FILLER_18_315
*1203 FILLER_18_318
*1204 FILLER_18_32
*1205 FILLER_18_321
*1206 FILLER_18_324
*1207 FILLER_18_327
*1208 FILLER_18_330
*1209 FILLER_18_333
*1210 FILLER_18_35
*1211 FILLER_18_38
*1212 FILLER_18_41
*1213 FILLER_18_44
*1214 FILLER_18_47
*1215 FILLER_18_50
*1216 FILLER_18_53
*1217 FILLER_18_56
*1218 FILLER_18_59
*1219 FILLER_18_6
*1220 FILLER_18_62
*1221 FILLER_18_65
*1222 FILLER_18_68
*1223 FILLER_18_71
*1224 FILLER_18_74
*1225 FILLER_18_77
*1226 FILLER_18_80
*1227 FILLER_18_83
*1228 FILLER_18_85
*1229 FILLER_18_88
*1230 FILLER_18_9
*1231 FILLER_18_91
*1232 FILLER_18_94
*1233 FILLER_18_97
*1234 FILLER_19_102
*1235 FILLER_19_105
*1236 FILLER_19_108
*1237 FILLER_19_111
*1238 FILLER_19_113
*1239 FILLER_19_116
*1240 FILLER_19_119
*1241 FILLER_19_12
*1242 FILLER_19_122
*1243 FILLER_19_125
*1244 FILLER_19_128
*1245 FILLER_19_131
*1246 FILLER_19_134
*1247 FILLER_19_137
*1248 FILLER_19_140
*1249 FILLER_19_143
*1250 FILLER_19_146
*1251 FILLER_19_149
*1252 FILLER_19_15
*1253 FILLER_19_152
*1254 FILLER_19_155
*1255 FILLER_19_158
*1256 FILLER_19_161
*1257 FILLER_19_164
*1258 FILLER_19_167
*1259 FILLER_19_169
*1260 FILLER_19_172
*1261 FILLER_19_175
*1262 FILLER_19_178
*1263 FILLER_19_18
*1264 FILLER_19_181
*1265 FILLER_19_184
*1266 FILLER_19_187
*1267 FILLER_19_190
*1268 FILLER_19_193
*1269 FILLER_19_196
*1270 FILLER_19_199
*1271 FILLER_19_202
*1272 FILLER_19_205
*1273 FILLER_19_208
*1274 FILLER_19_21
*1275 FILLER_19_211
*1276 FILLER_19_214
*1277 FILLER_19_217
*1278 FILLER_19_220
*1279 FILLER_19_223
*1280 FILLER_19_225
*1281 FILLER_19_228
*1282 FILLER_19_231
*1283 FILLER_19_234
*1284 FILLER_19_237
*1285 FILLER_19_24
*1286 FILLER_19_240
*1287 FILLER_19_243
*1288 FILLER_19_246
*1289 FILLER_19_249
*1290 FILLER_19_252
*1291 FILLER_19_255
*1292 FILLER_19_258
*1293 FILLER_19_261
*1294 FILLER_19_264
*1295 FILLER_19_267
*1296 FILLER_19_27
*1297 FILLER_19_270
*1298 FILLER_19_273
*1299 FILLER_19_276
*1300 FILLER_19_279
*1301 FILLER_19_281
*1302 FILLER_19_284
*1303 FILLER_19_287
*1304 FILLER_19_290
*1305 FILLER_19_293
*1306 FILLER_19_296
*1307 FILLER_19_299
*1308 FILLER_19_3
*1309 FILLER_19_30
*1310 FILLER_19_302
*1311 FILLER_19_305
*1312 FILLER_19_308
*1313 FILLER_19_311
*1314 FILLER_19_314
*1315 FILLER_19_317
*1316 FILLER_19_320
*1317 FILLER_19_323
*1318 FILLER_19_326
*1319 FILLER_19_329
*1320 FILLER_19_33
*1321 FILLER_19_332
*1322 FILLER_19_36
*1323 FILLER_19_39
*1324 FILLER_19_42
*1325 FILLER_19_45
*1326 FILLER_19_48
*1327 FILLER_19_51
*1328 FILLER_19_54
*1329 FILLER_19_57
*1330 FILLER_19_6
*1331 FILLER_19_60
*1332 FILLER_19_63
*1333 FILLER_19_66
*1334 FILLER_19_69
*1335 FILLER_19_72
*1336 FILLER_19_75
*1337 FILLER_19_78
*1338 FILLER_19_81
*1339 FILLER_19_84
*1340 FILLER_19_87
*1341 FILLER_19_9
*1342 FILLER_19_90
*1343 FILLER_19_93
*1344 FILLER_19_96
*1345 FILLER_19_99
*1346 FILLER_1_102
*1347 FILLER_1_105
*1348 FILLER_1_108
*1349 FILLER_1_111
*1350 FILLER_1_113
*1351 FILLER_1_116
*1352 FILLER_1_119
*1353 FILLER_1_12
*1354 FILLER_1_122
*1355 FILLER_1_125
*1356 FILLER_1_128
*1357 FILLER_1_131
*1358 FILLER_1_134
*1359 FILLER_1_137
*1360 FILLER_1_140
*1361 FILLER_1_143
*1362 FILLER_1_146
*1363 FILLER_1_149
*1364 FILLER_1_15
*1365 FILLER_1_152
*1366 FILLER_1_155
*1367 FILLER_1_158
*1368 FILLER_1_161
*1369 FILLER_1_164
*1370 FILLER_1_167
*1371 FILLER_1_169
*1372 FILLER_1_172
*1373 FILLER_1_175
*1374 FILLER_1_178
*1375 FILLER_1_18
*1376 FILLER_1_181
*1377 FILLER_1_184
*1378 FILLER_1_187
*1379 FILLER_1_190
*1380 FILLER_1_193
*1381 FILLER_1_196
*1382 FILLER_1_199
*1383 FILLER_1_202
*1384 FILLER_1_205
*1385 FILLER_1_208
*1386 FILLER_1_21
*1387 FILLER_1_211
*1388 FILLER_1_214
*1389 FILLER_1_217
*1390 FILLER_1_220
*1391 FILLER_1_223
*1392 FILLER_1_225
*1393 FILLER_1_228
*1394 FILLER_1_231
*1395 FILLER_1_234
*1396 FILLER_1_237
*1397 FILLER_1_24
*1398 FILLER_1_240
*1399 FILLER_1_243
*1400 FILLER_1_246
*1401 FILLER_1_249
*1402 FILLER_1_252
*1403 FILLER_1_255
*1404 FILLER_1_258
*1405 FILLER_1_261
*1406 FILLER_1_264
*1407 FILLER_1_267
*1408 FILLER_1_27
*1409 FILLER_1_270
*1410 FILLER_1_273
*1411 FILLER_1_276
*1412 FILLER_1_279
*1413 FILLER_1_281
*1414 FILLER_1_284
*1415 FILLER_1_287
*1416 FILLER_1_290
*1417 FILLER_1_293
*1418 FILLER_1_296
*1419 FILLER_1_299
*1420 FILLER_1_3
*1421 FILLER_1_30
*1422 FILLER_1_302
*1423 FILLER_1_305
*1424 FILLER_1_308
*1425 FILLER_1_311
*1426 FILLER_1_314
*1427 FILLER_1_317
*1428 FILLER_1_320
*1429 FILLER_1_323
*1430 FILLER_1_326
*1431 FILLER_1_329
*1432 FILLER_1_33
*1433 FILLER_1_332
*1434 FILLER_1_36
*1435 FILLER_1_39
*1436 FILLER_1_42
*1437 FILLER_1_45
*1438 FILLER_1_48
*1439 FILLER_1_51
*1440 FILLER_1_54
*1441 FILLER_1_57
*1442 FILLER_1_6
*1443 FILLER_1_60
*1444 FILLER_1_63
*1445 FILLER_1_66
*1446 FILLER_1_69
*1447 FILLER_1_72
*1448 FILLER_1_75
*1449 FILLER_1_78
*1450 FILLER_1_81
*1451 FILLER_1_84
*1452 FILLER_1_87
*1453 FILLER_1_9
*1454 FILLER_1_90
*1455 FILLER_1_93
*1456 FILLER_1_96
*1457 FILLER_1_99
*1458 FILLER_20_100
*1459 FILLER_20_103
*1460 FILLER_20_106
*1461 FILLER_20_109
*1462 FILLER_20_112
*1463 FILLER_20_115
*1464 FILLER_20_118
*1465 FILLER_20_12
*1466 FILLER_20_121
*1467 FILLER_20_124
*1468 FILLER_20_127
*1469 FILLER_20_130
*1470 FILLER_20_133
*1471 FILLER_20_136
*1472 FILLER_20_139
*1473 FILLER_20_141
*1474 FILLER_20_144
*1475 FILLER_20_147
*1476 FILLER_20_15
*1477 FILLER_20_150
*1478 FILLER_20_153
*1479 FILLER_20_156
*1480 FILLER_20_159
*1481 FILLER_20_162
*1482 FILLER_20_165
*1483 FILLER_20_168
*1484 FILLER_20_171
*1485 FILLER_20_174
*1486 FILLER_20_177
*1487 FILLER_20_18
*1488 FILLER_20_180
*1489 FILLER_20_183
*1490 FILLER_20_186
*1491 FILLER_20_189
*1492 FILLER_20_192
*1493 FILLER_20_195
*1494 FILLER_20_197
*1495 FILLER_20_200
*1496 FILLER_20_203
*1497 FILLER_20_206
*1498 FILLER_20_209
*1499 FILLER_20_21
*1500 FILLER_20_212
*1501 FILLER_20_215
*1502 FILLER_20_218
*1503 FILLER_20_221
*1504 FILLER_20_224
*1505 FILLER_20_227
*1506 FILLER_20_230
*1507 FILLER_20_233
*1508 FILLER_20_236
*1509 FILLER_20_239
*1510 FILLER_20_24
*1511 FILLER_20_242
*1512 FILLER_20_245
*1513 FILLER_20_248
*1514 FILLER_20_251
*1515 FILLER_20_253
*1516 FILLER_20_256
*1517 FILLER_20_259
*1518 FILLER_20_262
*1519 FILLER_20_265
*1520 FILLER_20_268
*1521 FILLER_20_27
*1522 FILLER_20_271
*1523 FILLER_20_274
*1524 FILLER_20_277
*1525 FILLER_20_280
*1526 FILLER_20_283
*1527 FILLER_20_286
*1528 FILLER_20_289
*1529 FILLER_20_29
*1530 FILLER_20_292
*1531 FILLER_20_295
*1532 FILLER_20_298
*1533 FILLER_20_3
*1534 FILLER_20_301
*1535 FILLER_20_304
*1536 FILLER_20_307
*1537 FILLER_20_309
*1538 FILLER_20_312
*1539 FILLER_20_315
*1540 FILLER_20_318
*1541 FILLER_20_32
*1542 FILLER_20_321
*1543 FILLER_20_324
*1544 FILLER_20_327
*1545 FILLER_20_330
*1546 FILLER_20_333
*1547 FILLER_20_35
*1548 FILLER_20_38
*1549 FILLER_20_41
*1550 FILLER_20_44
*1551 FILLER_20_47
*1552 FILLER_20_50
*1553 FILLER_20_53
*1554 FILLER_20_56
*1555 FILLER_20_59
*1556 FILLER_20_6
*1557 FILLER_20_62
*1558 FILLER_20_65
*1559 FILLER_20_68
*1560 FILLER_20_71
*1561 FILLER_20_74
*1562 FILLER_20_77
*1563 FILLER_20_80
*1564 FILLER_20_83
*1565 FILLER_20_85
*1566 FILLER_20_88
*1567 FILLER_20_9
*1568 FILLER_20_91
*1569 FILLER_20_94
*1570 FILLER_20_97
*1571 FILLER_21_102
*1572 FILLER_21_105
*1573 FILLER_21_108
*1574 FILLER_21_111
*1575 FILLER_21_113
*1576 FILLER_21_116
*1577 FILLER_21_119
*1578 FILLER_21_12
*1579 FILLER_21_122
*1580 FILLER_21_125
*1581 FILLER_21_128
*1582 FILLER_21_131
*1583 FILLER_21_134
*1584 FILLER_21_137
*1585 FILLER_21_140
*1586 FILLER_21_143
*1587 FILLER_21_146
*1588 FILLER_21_149
*1589 FILLER_21_15
*1590 FILLER_21_152
*1591 FILLER_21_155
*1592 FILLER_21_158
*1593 FILLER_21_161
*1594 FILLER_21_164
*1595 FILLER_21_167
*1596 FILLER_21_169
*1597 FILLER_21_172
*1598 FILLER_21_175
*1599 FILLER_21_178
*1600 FILLER_21_18
*1601 FILLER_21_181
*1602 FILLER_21_184
*1603 FILLER_21_187
*1604 FILLER_21_190
*1605 FILLER_21_193
*1606 FILLER_21_196
*1607 FILLER_21_199
*1608 FILLER_21_202
*1609 FILLER_21_205
*1610 FILLER_21_208
*1611 FILLER_21_21
*1612 FILLER_21_211
*1613 FILLER_21_214
*1614 FILLER_21_217
*1615 FILLER_21_220
*1616 FILLER_21_223
*1617 FILLER_21_225
*1618 FILLER_21_228
*1619 FILLER_21_231
*1620 FILLER_21_234
*1621 FILLER_21_237
*1622 FILLER_21_24
*1623 FILLER_21_240
*1624 FILLER_21_243
*1625 FILLER_21_246
*1626 FILLER_21_249
*1627 FILLER_21_252
*1628 FILLER_21_255
*1629 FILLER_21_258
*1630 FILLER_21_261
*1631 FILLER_21_264
*1632 FILLER_21_267
*1633 FILLER_21_27
*1634 FILLER_21_270
*1635 FILLER_21_273
*1636 FILLER_21_276
*1637 FILLER_21_279
*1638 FILLER_21_281
*1639 FILLER_21_284
*1640 FILLER_21_287
*1641 FILLER_21_290
*1642 FILLER_21_293
*1643 FILLER_21_296
*1644 FILLER_21_299
*1645 FILLER_21_3
*1646 FILLER_21_30
*1647 FILLER_21_302
*1648 FILLER_21_305
*1649 FILLER_21_308
*1650 FILLER_21_311
*1651 FILLER_21_314
*1652 FILLER_21_317
*1653 FILLER_21_320
*1654 FILLER_21_323
*1655 FILLER_21_326
*1656 FILLER_21_329
*1657 FILLER_21_33
*1658 FILLER_21_332
*1659 FILLER_21_36
*1660 FILLER_21_39
*1661 FILLER_21_42
*1662 FILLER_21_45
*1663 FILLER_21_48
*1664 FILLER_21_51
*1665 FILLER_21_54
*1666 FILLER_21_57
*1667 FILLER_21_6
*1668 FILLER_21_60
*1669 FILLER_21_63
*1670 FILLER_21_66
*1671 FILLER_21_69
*1672 FILLER_21_72
*1673 FILLER_21_75
*1674 FILLER_21_78
*1675 FILLER_21_81
*1676 FILLER_21_84
*1677 FILLER_21_87
*1678 FILLER_21_9
*1679 FILLER_21_90
*1680 FILLER_21_93
*1681 FILLER_21_96
*1682 FILLER_21_99
*1683 FILLER_22_100
*1684 FILLER_22_103
*1685 FILLER_22_106
*1686 FILLER_22_109
*1687 FILLER_22_112
*1688 FILLER_22_115
*1689 FILLER_22_118
*1690 FILLER_22_12
*1691 FILLER_22_121
*1692 FILLER_22_124
*1693 FILLER_22_127
*1694 FILLER_22_130
*1695 FILLER_22_133
*1696 FILLER_22_136
*1697 FILLER_22_139
*1698 FILLER_22_141
*1699 FILLER_22_144
*1700 FILLER_22_147
*1701 FILLER_22_15
*1702 FILLER_22_150
*1703 FILLER_22_153
*1704 FILLER_22_156
*1705 FILLER_22_159
*1706 FILLER_22_162
*1707 FILLER_22_165
*1708 FILLER_22_168
*1709 FILLER_22_171
*1710 FILLER_22_174
*1711 FILLER_22_177
*1712 FILLER_22_18
*1713 FILLER_22_180
*1714 FILLER_22_183
*1715 FILLER_22_186
*1716 FILLER_22_189
*1717 FILLER_22_192
*1718 FILLER_22_195
*1719 FILLER_22_197
*1720 FILLER_22_200
*1721 FILLER_22_203
*1722 FILLER_22_206
*1723 FILLER_22_209
*1724 FILLER_22_21
*1725 FILLER_22_212
*1726 FILLER_22_215
*1727 FILLER_22_218
*1728 FILLER_22_221
*1729 FILLER_22_224
*1730 FILLER_22_227
*1731 FILLER_22_230
*1732 FILLER_22_233
*1733 FILLER_22_236
*1734 FILLER_22_239
*1735 FILLER_22_24
*1736 FILLER_22_242
*1737 FILLER_22_245
*1738 FILLER_22_248
*1739 FILLER_22_251
*1740 FILLER_22_253
*1741 FILLER_22_256
*1742 FILLER_22_259
*1743 FILLER_22_262
*1744 FILLER_22_265
*1745 FILLER_22_268
*1746 FILLER_22_27
*1747 FILLER_22_271
*1748 FILLER_22_274
*1749 FILLER_22_277
*1750 FILLER_22_280
*1751 FILLER_22_283
*1752 FILLER_22_286
*1753 FILLER_22_289
*1754 FILLER_22_29
*1755 FILLER_22_292
*1756 FILLER_22_295
*1757 FILLER_22_298
*1758 FILLER_22_3
*1759 FILLER_22_301
*1760 FILLER_22_304
*1761 FILLER_22_307
*1762 FILLER_22_309
*1763 FILLER_22_312
*1764 FILLER_22_315
*1765 FILLER_22_318
*1766 FILLER_22_32
*1767 FILLER_22_321
*1768 FILLER_22_324
*1769 FILLER_22_327
*1770 FILLER_22_330
*1771 FILLER_22_333
*1772 FILLER_22_35
*1773 FILLER_22_38
*1774 FILLER_22_41
*1775 FILLER_22_44
*1776 FILLER_22_47
*1777 FILLER_22_50
*1778 FILLER_22_53
*1779 FILLER_22_56
*1780 FILLER_22_59
*1781 FILLER_22_6
*1782 FILLER_22_62
*1783 FILLER_22_65
*1784 FILLER_22_68
*1785 FILLER_22_71
*1786 FILLER_22_74
*1787 FILLER_22_77
*1788 FILLER_22_80
*1789 FILLER_22_83
*1790 FILLER_22_85
*1791 FILLER_22_88
*1792 FILLER_22_9
*1793 FILLER_22_91
*1794 FILLER_22_94
*1795 FILLER_22_97
*1796 FILLER_23_102
*1797 FILLER_23_105
*1798 FILLER_23_108
*1799 FILLER_23_111
*1800 FILLER_23_113
*1801 FILLER_23_116
*1802 FILLER_23_119
*1803 FILLER_23_12
*1804 FILLER_23_122
*1805 FILLER_23_125
*1806 FILLER_23_128
*1807 FILLER_23_131
*1808 FILLER_23_134
*1809 FILLER_23_137
*1810 FILLER_23_140
*1811 FILLER_23_143
*1812 FILLER_23_146
*1813 FILLER_23_149
*1814 FILLER_23_15
*1815 FILLER_23_152
*1816 FILLER_23_155
*1817 FILLER_23_158
*1818 FILLER_23_161
*1819 FILLER_23_164
*1820 FILLER_23_167
*1821 FILLER_23_169
*1822 FILLER_23_172
*1823 FILLER_23_175
*1824 FILLER_23_178
*1825 FILLER_23_18
*1826 FILLER_23_181
*1827 FILLER_23_184
*1828 FILLER_23_187
*1829 FILLER_23_190
*1830 FILLER_23_193
*1831 FILLER_23_196
*1832 FILLER_23_199
*1833 FILLER_23_202
*1834 FILLER_23_205
*1835 FILLER_23_208
*1836 FILLER_23_21
*1837 FILLER_23_211
*1838 FILLER_23_214
*1839 FILLER_23_217
*1840 FILLER_23_220
*1841 FILLER_23_223
*1842 FILLER_23_225
*1843 FILLER_23_228
*1844 FILLER_23_231
*1845 FILLER_23_234
*1846 FILLER_23_237
*1847 FILLER_23_24
*1848 FILLER_23_240
*1849 FILLER_23_243
*1850 FILLER_23_246
*1851 FILLER_23_249
*1852 FILLER_23_252
*1853 FILLER_23_255
*1854 FILLER_23_258
*1855 FILLER_23_261
*1856 FILLER_23_264
*1857 FILLER_23_267
*1858 FILLER_23_27
*1859 FILLER_23_270
*1860 FILLER_23_273
*1861 FILLER_23_276
*1862 FILLER_23_279
*1863 FILLER_23_281
*1864 FILLER_23_284
*1865 FILLER_23_287
*1866 FILLER_23_290
*1867 FILLER_23_293
*1868 FILLER_23_296
*1869 FILLER_23_299
*1870 FILLER_23_3
*1871 FILLER_23_30
*1872 FILLER_23_302
*1873 FILLER_23_305
*1874 FILLER_23_308
*1875 FILLER_23_311
*1876 FILLER_23_314
*1877 FILLER_23_317
*1878 FILLER_23_320
*1879 FILLER_23_323
*1880 FILLER_23_326
*1881 FILLER_23_329
*1882 FILLER_23_33
*1883 FILLER_23_332
*1884 FILLER_23_36
*1885 FILLER_23_39
*1886 FILLER_23_42
*1887 FILLER_23_45
*1888 FILLER_23_48
*1889 FILLER_23_51
*1890 FILLER_23_54
*1891 FILLER_23_57
*1892 FILLER_23_6
*1893 FILLER_23_60
*1894 FILLER_23_63
*1895 FILLER_23_66
*1896 FILLER_23_69
*1897 FILLER_23_72
*1898 FILLER_23_75
*1899 FILLER_23_78
*1900 FILLER_23_81
*1901 FILLER_23_84
*1902 FILLER_23_87
*1903 FILLER_23_9
*1904 FILLER_23_90
*1905 FILLER_23_93
*1906 FILLER_23_96
*1907 FILLER_23_99
*1908 FILLER_24_100
*1909 FILLER_24_103
*1910 FILLER_24_106
*1911 FILLER_24_109
*1912 FILLER_24_112
*1913 FILLER_24_115
*1914 FILLER_24_118
*1915 FILLER_24_12
*1916 FILLER_24_121
*1917 FILLER_24_124
*1918 FILLER_24_127
*1919 FILLER_24_130
*1920 FILLER_24_133
*1921 FILLER_24_136
*1922 FILLER_24_139
*1923 FILLER_24_141
*1924 FILLER_24_144
*1925 FILLER_24_147
*1926 FILLER_24_15
*1927 FILLER_24_150
*1928 FILLER_24_153
*1929 FILLER_24_156
*1930 FILLER_24_159
*1931 FILLER_24_162
*1932 FILLER_24_165
*1933 FILLER_24_168
*1934 FILLER_24_171
*1935 FILLER_24_174
*1936 FILLER_24_177
*1937 FILLER_24_18
*1938 FILLER_24_180
*1939 FILLER_24_183
*1940 FILLER_24_186
*1941 FILLER_24_189
*1942 FILLER_24_192
*1943 FILLER_24_195
*1944 FILLER_24_197
*1945 FILLER_24_200
*1946 FILLER_24_203
*1947 FILLER_24_206
*1948 FILLER_24_209
*1949 FILLER_24_21
*1950 FILLER_24_212
*1951 FILLER_24_215
*1952 FILLER_24_218
*1953 FILLER_24_221
*1954 FILLER_24_224
*1955 FILLER_24_227
*1956 FILLER_24_230
*1957 FILLER_24_233
*1958 FILLER_24_236
*1959 FILLER_24_239
*1960 FILLER_24_24
*1961 FILLER_24_242
*1962 FILLER_24_245
*1963 FILLER_24_248
*1964 FILLER_24_251
*1965 FILLER_24_253
*1966 FILLER_24_256
*1967 FILLER_24_259
*1968 FILLER_24_262
*1969 FILLER_24_265
*1970 FILLER_24_268
*1971 FILLER_24_27
*1972 FILLER_24_271
*1973 FILLER_24_274
*1974 FILLER_24_277
*1975 FILLER_24_280
*1976 FILLER_24_283
*1977 FILLER_24_286
*1978 FILLER_24_289
*1979 FILLER_24_29
*1980 FILLER_24_292
*1981 FILLER_24_295
*1982 FILLER_24_298
*1983 FILLER_24_3
*1984 FILLER_24_301
*1985 FILLER_24_304
*1986 FILLER_24_307
*1987 FILLER_24_309
*1988 FILLER_24_312
*1989 FILLER_24_315
*1990 FILLER_24_318
*1991 FILLER_24_32
*1992 FILLER_24_321
*1993 FILLER_24_324
*1994 FILLER_24_327
*1995 FILLER_24_330
*1996 FILLER_24_333
*1997 FILLER_24_35
*1998 FILLER_24_38
*1999 FILLER_24_41
*2000 FILLER_24_44
*2001 FILLER_24_47
*2002 FILLER_24_50
*2003 FILLER_24_53
*2004 FILLER_24_56
*2005 FILLER_24_59
*2006 FILLER_24_6
*2007 FILLER_24_62
*2008 FILLER_24_65
*2009 FILLER_24_68
*2010 FILLER_24_71
*2011 FILLER_24_74
*2012 FILLER_24_77
*2013 FILLER_24_80
*2014 FILLER_24_83
*2015 FILLER_24_85
*2016 FILLER_24_88
*2017 FILLER_24_9
*2018 FILLER_24_91
*2019 FILLER_24_94
*2020 FILLER_24_97
*2021 FILLER_25_102
*2022 FILLER_25_105
*2023 FILLER_25_108
*2024 FILLER_25_111
*2025 FILLER_25_113
*2026 FILLER_25_116
*2027 FILLER_25_119
*2028 FILLER_25_12
*2029 FILLER_25_122
*2030 FILLER_25_125
*2031 FILLER_25_128
*2032 FILLER_25_131
*2033 FILLER_25_134
*2034 FILLER_25_137
*2035 FILLER_25_140
*2036 FILLER_25_143
*2037 FILLER_25_146
*2038 FILLER_25_149
*2039 FILLER_25_15
*2040 FILLER_25_152
*2041 FILLER_25_155
*2042 FILLER_25_158
*2043 FILLER_25_161
*2044 FILLER_25_164
*2045 FILLER_25_167
*2046 FILLER_25_169
*2047 FILLER_25_172
*2048 FILLER_25_175
*2049 FILLER_25_178
*2050 FILLER_25_18
*2051 FILLER_25_181
*2052 FILLER_25_184
*2053 FILLER_25_187
*2054 FILLER_25_190
*2055 FILLER_25_193
*2056 FILLER_25_196
*2057 FILLER_25_199
*2058 FILLER_25_202
*2059 FILLER_25_205
*2060 FILLER_25_208
*2061 FILLER_25_21
*2062 FILLER_25_211
*2063 FILLER_25_214
*2064 FILLER_25_217
*2065 FILLER_25_220
*2066 FILLER_25_223
*2067 FILLER_25_225
*2068 FILLER_25_228
*2069 FILLER_25_231
*2070 FILLER_25_234
*2071 FILLER_25_237
*2072 FILLER_25_24
*2073 FILLER_25_240
*2074 FILLER_25_243
*2075 FILLER_25_246
*2076 FILLER_25_249
*2077 FILLER_25_252
*2078 FILLER_25_255
*2079 FILLER_25_258
*2080 FILLER_25_261
*2081 FILLER_25_264
*2082 FILLER_25_267
*2083 FILLER_25_27
*2084 FILLER_25_270
*2085 FILLER_25_273
*2086 FILLER_25_276
*2087 FILLER_25_279
*2088 FILLER_25_281
*2089 FILLER_25_284
*2090 FILLER_25_287
*2091 FILLER_25_290
*2092 FILLER_25_293
*2093 FILLER_25_296
*2094 FILLER_25_299
*2095 FILLER_25_3
*2096 FILLER_25_30
*2097 FILLER_25_302
*2098 FILLER_25_305
*2099 FILLER_25_308
*2100 FILLER_25_311
*2101 FILLER_25_314
*2102 FILLER_25_317
*2103 FILLER_25_320
*2104 FILLER_25_323
*2105 FILLER_25_326
*2106 FILLER_25_329
*2107 FILLER_25_33
*2108 FILLER_25_332
*2109 FILLER_25_36
*2110 FILLER_25_39
*2111 FILLER_25_42
*2112 FILLER_25_45
*2113 FILLER_25_48
*2114 FILLER_25_51
*2115 FILLER_25_54
*2116 FILLER_25_57
*2117 FILLER_25_6
*2118 FILLER_25_60
*2119 FILLER_25_63
*2120 FILLER_25_66
*2121 FILLER_25_69
*2122 FILLER_25_72
*2123 FILLER_25_75
*2124 FILLER_25_78
*2125 FILLER_25_81
*2126 FILLER_25_84
*2127 FILLER_25_87
*2128 FILLER_25_9
*2129 FILLER_25_90
*2130 FILLER_25_93
*2131 FILLER_25_96
*2132 FILLER_25_99
*2133 FILLER_26_100
*2134 FILLER_26_103
*2135 FILLER_26_106
*2136 FILLER_26_109
*2137 FILLER_26_112
*2138 FILLER_26_115
*2139 FILLER_26_118
*2140 FILLER_26_12
*2141 FILLER_26_121
*2142 FILLER_26_124
*2143 FILLER_26_127
*2144 FILLER_26_130
*2145 FILLER_26_133
*2146 FILLER_26_136
*2147 FILLER_26_139
*2148 FILLER_26_141
*2149 FILLER_26_144
*2150 FILLER_26_147
*2151 FILLER_26_15
*2152 FILLER_26_150
*2153 FILLER_26_153
*2154 FILLER_26_156
*2155 FILLER_26_159
*2156 FILLER_26_162
*2157 FILLER_26_165
*2158 FILLER_26_168
*2159 FILLER_26_171
*2160 FILLER_26_174
*2161 FILLER_26_177
*2162 FILLER_26_18
*2163 FILLER_26_180
*2164 FILLER_26_183
*2165 FILLER_26_186
*2166 FILLER_26_189
*2167 FILLER_26_192
*2168 FILLER_26_195
*2169 FILLER_26_197
*2170 FILLER_26_200
*2171 FILLER_26_203
*2172 FILLER_26_206
*2173 FILLER_26_209
*2174 FILLER_26_21
*2175 FILLER_26_212
*2176 FILLER_26_215
*2177 FILLER_26_218
*2178 FILLER_26_221
*2179 FILLER_26_224
*2180 FILLER_26_227
*2181 FILLER_26_230
*2182 FILLER_26_233
*2183 FILLER_26_236
*2184 FILLER_26_239
*2185 FILLER_26_24
*2186 FILLER_26_242
*2187 FILLER_26_245
*2188 FILLER_26_248
*2189 FILLER_26_251
*2190 FILLER_26_253
*2191 FILLER_26_256
*2192 FILLER_26_259
*2193 FILLER_26_262
*2194 FILLER_26_265
*2195 FILLER_26_268
*2196 FILLER_26_27
*2197 FILLER_26_271
*2198 FILLER_26_274
*2199 FILLER_26_277
*2200 FILLER_26_280
*2201 FILLER_26_283
*2202 FILLER_26_286
*2203 FILLER_26_289
*2204 FILLER_26_29
*2205 FILLER_26_292
*2206 FILLER_26_295
*2207 FILLER_26_298
*2208 FILLER_26_3
*2209 FILLER_26_301
*2210 FILLER_26_304
*2211 FILLER_26_307
*2212 FILLER_26_309
*2213 FILLER_26_312
*2214 FILLER_26_315
*2215 FILLER_26_318
*2216 FILLER_26_32
*2217 FILLER_26_321
*2218 FILLER_26_324
*2219 FILLER_26_327
*2220 FILLER_26_330
*2221 FILLER_26_333
*2222 FILLER_26_35
*2223 FILLER_26_38
*2224 FILLER_26_41
*2225 FILLER_26_44
*2226 FILLER_26_47
*2227 FILLER_26_50
*2228 FILLER_26_53
*2229 FILLER_26_56
*2230 FILLER_26_59
*2231 FILLER_26_6
*2232 FILLER_26_62
*2233 FILLER_26_65
*2234 FILLER_26_68
*2235 FILLER_26_71
*2236 FILLER_26_74
*2237 FILLER_26_77
*2238 FILLER_26_80
*2239 FILLER_26_83
*2240 FILLER_26_85
*2241 FILLER_26_88
*2242 FILLER_26_9
*2243 FILLER_26_91
*2244 FILLER_26_94
*2245 FILLER_26_97
*2246 FILLER_27_102
*2247 FILLER_27_105
*2248 FILLER_27_108
*2249 FILLER_27_111
*2250 FILLER_27_113
*2251 FILLER_27_116
*2252 FILLER_27_119
*2253 FILLER_27_12
*2254 FILLER_27_122
*2255 FILLER_27_125
*2256 FILLER_27_128
*2257 FILLER_27_131
*2258 FILLER_27_134
*2259 FILLER_27_137
*2260 FILLER_27_140
*2261 FILLER_27_143
*2262 FILLER_27_146
*2263 FILLER_27_149
*2264 FILLER_27_15
*2265 FILLER_27_152
*2266 FILLER_27_155
*2267 FILLER_27_158
*2268 FILLER_27_161
*2269 FILLER_27_164
*2270 FILLER_27_167
*2271 FILLER_27_169
*2272 FILLER_27_172
*2273 FILLER_27_175
*2274 FILLER_27_178
*2275 FILLER_27_18
*2276 FILLER_27_181
*2277 FILLER_27_184
*2278 FILLER_27_187
*2279 FILLER_27_190
*2280 FILLER_27_193
*2281 FILLER_27_196
*2282 FILLER_27_199
*2283 FILLER_27_202
*2284 FILLER_27_205
*2285 FILLER_27_208
*2286 FILLER_27_21
*2287 FILLER_27_211
*2288 FILLER_27_214
*2289 FILLER_27_217
*2290 FILLER_27_220
*2291 FILLER_27_223
*2292 FILLER_27_225
*2293 FILLER_27_228
*2294 FILLER_27_231
*2295 FILLER_27_234
*2296 FILLER_27_237
*2297 FILLER_27_24
*2298 FILLER_27_240
*2299 FILLER_27_243
*2300 FILLER_27_246
*2301 FILLER_27_249
*2302 FILLER_27_252
*2303 FILLER_27_255
*2304 FILLER_27_258
*2305 FILLER_27_261
*2306 FILLER_27_264
*2307 FILLER_27_267
*2308 FILLER_27_27
*2309 FILLER_27_270
*2310 FILLER_27_273
*2311 FILLER_27_276
*2312 FILLER_27_279
*2313 FILLER_27_281
*2314 FILLER_27_284
*2315 FILLER_27_287
*2316 FILLER_27_290
*2317 FILLER_27_293
*2318 FILLER_27_296
*2319 FILLER_27_299
*2320 FILLER_27_3
*2321 FILLER_27_30
*2322 FILLER_27_302
*2323 FILLER_27_305
*2324 FILLER_27_308
*2325 FILLER_27_311
*2326 FILLER_27_314
*2327 FILLER_27_317
*2328 FILLER_27_320
*2329 FILLER_27_323
*2330 FILLER_27_326
*2331 FILLER_27_329
*2332 FILLER_27_33
*2333 FILLER_27_332
*2334 FILLER_27_36
*2335 FILLER_27_39
*2336 FILLER_27_42
*2337 FILLER_27_45
*2338 FILLER_27_48
*2339 FILLER_27_51
*2340 FILLER_27_54
*2341 FILLER_27_57
*2342 FILLER_27_6
*2343 FILLER_27_60
*2344 FILLER_27_63
*2345 FILLER_27_66
*2346 FILLER_27_69
*2347 FILLER_27_72
*2348 FILLER_27_75
*2349 FILLER_27_78
*2350 FILLER_27_81
*2351 FILLER_27_84
*2352 FILLER_27_87
*2353 FILLER_27_9
*2354 FILLER_27_90
*2355 FILLER_27_93
*2356 FILLER_27_96
*2357 FILLER_27_99
*2358 FILLER_28_100
*2359 FILLER_28_103
*2360 FILLER_28_106
*2361 FILLER_28_109
*2362 FILLER_28_112
*2363 FILLER_28_115
*2364 FILLER_28_118
*2365 FILLER_28_12
*2366 FILLER_28_121
*2367 FILLER_28_124
*2368 FILLER_28_127
*2369 FILLER_28_130
*2370 FILLER_28_133
*2371 FILLER_28_136
*2372 FILLER_28_139
*2373 FILLER_28_141
*2374 FILLER_28_144
*2375 FILLER_28_147
*2376 FILLER_28_15
*2377 FILLER_28_150
*2378 FILLER_28_153
*2379 FILLER_28_156
*2380 FILLER_28_159
*2381 FILLER_28_162
*2382 FILLER_28_165
*2383 FILLER_28_168
*2384 FILLER_28_171
*2385 FILLER_28_174
*2386 FILLER_28_177
*2387 FILLER_28_18
*2388 FILLER_28_180
*2389 FILLER_28_183
*2390 FILLER_28_186
*2391 FILLER_28_189
*2392 FILLER_28_192
*2393 FILLER_28_195
*2394 FILLER_28_197
*2395 FILLER_28_200
*2396 FILLER_28_203
*2397 FILLER_28_206
*2398 FILLER_28_209
*2399 FILLER_28_21
*2400 FILLER_28_212
*2401 FILLER_28_215
*2402 FILLER_28_218
*2403 FILLER_28_221
*2404 FILLER_28_224
*2405 FILLER_28_227
*2406 FILLER_28_230
*2407 FILLER_28_233
*2408 FILLER_28_236
*2409 FILLER_28_239
*2410 FILLER_28_24
*2411 FILLER_28_242
*2412 FILLER_28_245
*2413 FILLER_28_248
*2414 FILLER_28_251
*2415 FILLER_28_253
*2416 FILLER_28_256
*2417 FILLER_28_259
*2418 FILLER_28_262
*2419 FILLER_28_265
*2420 FILLER_28_268
*2421 FILLER_28_27
*2422 FILLER_28_271
*2423 FILLER_28_274
*2424 FILLER_28_277
*2425 FILLER_28_280
*2426 FILLER_28_283
*2427 FILLER_28_286
*2428 FILLER_28_289
*2429 FILLER_28_29
*2430 FILLER_28_292
*2431 FILLER_28_295
*2432 FILLER_28_298
*2433 FILLER_28_3
*2434 FILLER_28_301
*2435 FILLER_28_304
*2436 FILLER_28_307
*2437 FILLER_28_309
*2438 FILLER_28_312
*2439 FILLER_28_315
*2440 FILLER_28_318
*2441 FILLER_28_32
*2442 FILLER_28_321
*2443 FILLER_28_324
*2444 FILLER_28_327
*2445 FILLER_28_330
*2446 FILLER_28_333
*2447 FILLER_28_35
*2448 FILLER_28_38
*2449 FILLER_28_41
*2450 FILLER_28_44
*2451 FILLER_28_47
*2452 FILLER_28_50
*2453 FILLER_28_53
*2454 FILLER_28_56
*2455 FILLER_28_59
*2456 FILLER_28_6
*2457 FILLER_28_62
*2458 FILLER_28_65
*2459 FILLER_28_68
*2460 FILLER_28_71
*2461 FILLER_28_74
*2462 FILLER_28_77
*2463 FILLER_28_80
*2464 FILLER_28_83
*2465 FILLER_28_85
*2466 FILLER_28_88
*2467 FILLER_28_9
*2468 FILLER_28_91
*2469 FILLER_28_94
*2470 FILLER_28_97
*2471 FILLER_29_102
*2472 FILLER_29_105
*2473 FILLER_29_108
*2474 FILLER_29_111
*2475 FILLER_29_113
*2476 FILLER_29_116
*2477 FILLER_29_119
*2478 FILLER_29_12
*2479 FILLER_29_122
*2480 FILLER_29_125
*2481 FILLER_29_128
*2482 FILLER_29_131
*2483 FILLER_29_134
*2484 FILLER_29_137
*2485 FILLER_29_140
*2486 FILLER_29_143
*2487 FILLER_29_146
*2488 FILLER_29_149
*2489 FILLER_29_15
*2490 FILLER_29_152
*2491 FILLER_29_155
*2492 FILLER_29_158
*2493 FILLER_29_161
*2494 FILLER_29_164
*2495 FILLER_29_167
*2496 FILLER_29_169
*2497 FILLER_29_172
*2498 FILLER_29_175
*2499 FILLER_29_178
*2500 FILLER_29_18
*2501 FILLER_29_181
*2502 FILLER_29_184
*2503 FILLER_29_187
*2504 FILLER_29_190
*2505 FILLER_29_193
*2506 FILLER_29_196
*2507 FILLER_29_199
*2508 FILLER_29_202
*2509 FILLER_29_205
*2510 FILLER_29_208
*2511 FILLER_29_21
*2512 FILLER_29_211
*2513 FILLER_29_214
*2514 FILLER_29_217
*2515 FILLER_29_220
*2516 FILLER_29_223
*2517 FILLER_29_225
*2518 FILLER_29_228
*2519 FILLER_29_231
*2520 FILLER_29_234
*2521 FILLER_29_237
*2522 FILLER_29_24
*2523 FILLER_29_240
*2524 FILLER_29_243
*2525 FILLER_29_246
*2526 FILLER_29_249
*2527 FILLER_29_252
*2528 FILLER_29_255
*2529 FILLER_29_258
*2530 FILLER_29_261
*2531 FILLER_29_264
*2532 FILLER_29_267
*2533 FILLER_29_27
*2534 FILLER_29_270
*2535 FILLER_29_273
*2536 FILLER_29_276
*2537 FILLER_29_279
*2538 FILLER_29_281
*2539 FILLER_29_284
*2540 FILLER_29_287
*2541 FILLER_29_290
*2542 FILLER_29_293
*2543 FILLER_29_296
*2544 FILLER_29_299
*2545 FILLER_29_3
*2546 FILLER_29_30
*2547 FILLER_29_302
*2548 FILLER_29_305
*2549 FILLER_29_308
*2550 FILLER_29_311
*2551 FILLER_29_314
*2552 FILLER_29_317
*2553 FILLER_29_320
*2554 FILLER_29_323
*2555 FILLER_29_326
*2556 FILLER_29_329
*2557 FILLER_29_33
*2558 FILLER_29_332
*2559 FILLER_29_36
*2560 FILLER_29_39
*2561 FILLER_29_42
*2562 FILLER_29_45
*2563 FILLER_29_48
*2564 FILLER_29_51
*2565 FILLER_29_54
*2566 FILLER_29_57
*2567 FILLER_29_6
*2568 FILLER_29_60
*2569 FILLER_29_63
*2570 FILLER_29_66
*2571 FILLER_29_69
*2572 FILLER_29_72
*2573 FILLER_29_75
*2574 FILLER_29_78
*2575 FILLER_29_81
*2576 FILLER_29_84
*2577 FILLER_29_87
*2578 FILLER_29_9
*2579 FILLER_29_90
*2580 FILLER_29_93
*2581 FILLER_29_96
*2582 FILLER_29_99
*2583 FILLER_2_100
*2584 FILLER_2_103
*2585 FILLER_2_106
*2586 FILLER_2_109
*2587 FILLER_2_112
*2588 FILLER_2_115
*2589 FILLER_2_118
*2590 FILLER_2_12
*2591 FILLER_2_121
*2592 FILLER_2_124
*2593 FILLER_2_127
*2594 FILLER_2_130
*2595 FILLER_2_133
*2596 FILLER_2_136
*2597 FILLER_2_139
*2598 FILLER_2_141
*2599 FILLER_2_144
*2600 FILLER_2_147
*2601 FILLER_2_15
*2602 FILLER_2_150
*2603 FILLER_2_153
*2604 FILLER_2_156
*2605 FILLER_2_159
*2606 FILLER_2_162
*2607 FILLER_2_165
*2608 FILLER_2_168
*2609 FILLER_2_171
*2610 FILLER_2_174
*2611 FILLER_2_177
*2612 FILLER_2_18
*2613 FILLER_2_180
*2614 FILLER_2_183
*2615 FILLER_2_186
*2616 FILLER_2_189
*2617 FILLER_2_192
*2618 FILLER_2_195
*2619 FILLER_2_197
*2620 FILLER_2_200
*2621 FILLER_2_203
*2622 FILLER_2_206
*2623 FILLER_2_209
*2624 FILLER_2_21
*2625 FILLER_2_212
*2626 FILLER_2_215
*2627 FILLER_2_218
*2628 FILLER_2_221
*2629 FILLER_2_224
*2630 FILLER_2_227
*2631 FILLER_2_230
*2632 FILLER_2_233
*2633 FILLER_2_236
*2634 FILLER_2_239
*2635 FILLER_2_24
*2636 FILLER_2_242
*2637 FILLER_2_245
*2638 FILLER_2_248
*2639 FILLER_2_251
*2640 FILLER_2_253
*2641 FILLER_2_256
*2642 FILLER_2_259
*2643 FILLER_2_262
*2644 FILLER_2_265
*2645 FILLER_2_268
*2646 FILLER_2_27
*2647 FILLER_2_271
*2648 FILLER_2_274
*2649 FILLER_2_277
*2650 FILLER_2_280
*2651 FILLER_2_283
*2652 FILLER_2_286
*2653 FILLER_2_289
*2654 FILLER_2_29
*2655 FILLER_2_292
*2656 FILLER_2_295
*2657 FILLER_2_298
*2658 FILLER_2_3
*2659 FILLER_2_301
*2660 FILLER_2_304
*2661 FILLER_2_307
*2662 FILLER_2_309
*2663 FILLER_2_312
*2664 FILLER_2_315
*2665 FILLER_2_318
*2666 FILLER_2_32
*2667 FILLER_2_321
*2668 FILLER_2_324
*2669 FILLER_2_327
*2670 FILLER_2_330
*2671 FILLER_2_333
*2672 FILLER_2_35
*2673 FILLER_2_38
*2674 FILLER_2_41
*2675 FILLER_2_44
*2676 FILLER_2_47
*2677 FILLER_2_50
*2678 FILLER_2_53
*2679 FILLER_2_56
*2680 FILLER_2_59
*2681 FILLER_2_6
*2682 FILLER_2_62
*2683 FILLER_2_65
*2684 FILLER_2_68
*2685 FILLER_2_71
*2686 FILLER_2_74
*2687 FILLER_2_77
*2688 FILLER_2_80
*2689 FILLER_2_83
*2690 FILLER_2_85
*2691 FILLER_2_88
*2692 FILLER_2_9
*2693 FILLER_2_91
*2694 FILLER_2_94
*2695 FILLER_2_97
*2696 FILLER_30_100
*2697 FILLER_30_103
*2698 FILLER_30_106
*2699 FILLER_30_109
*2700 FILLER_30_112
*2701 FILLER_30_115
*2702 FILLER_30_118
*2703 FILLER_30_12
*2704 FILLER_30_121
*2705 FILLER_30_124
*2706 FILLER_30_127
*2707 FILLER_30_130
*2708 FILLER_30_133
*2709 FILLER_30_136
*2710 FILLER_30_139
*2711 FILLER_30_141
*2712 FILLER_30_144
*2713 FILLER_30_147
*2714 FILLER_30_15
*2715 FILLER_30_150
*2716 FILLER_30_153
*2717 FILLER_30_156
*2718 FILLER_30_159
*2719 FILLER_30_162
*2720 FILLER_30_165
*2721 FILLER_30_168
*2722 FILLER_30_171
*2723 FILLER_30_174
*2724 FILLER_30_177
*2725 FILLER_30_18
*2726 FILLER_30_180
*2727 FILLER_30_183
*2728 FILLER_30_186
*2729 FILLER_30_189
*2730 FILLER_30_192
*2731 FILLER_30_195
*2732 FILLER_30_197
*2733 FILLER_30_200
*2734 FILLER_30_203
*2735 FILLER_30_206
*2736 FILLER_30_209
*2737 FILLER_30_21
*2738 FILLER_30_212
*2739 FILLER_30_215
*2740 FILLER_30_218
*2741 FILLER_30_221
*2742 FILLER_30_224
*2743 FILLER_30_227
*2744 FILLER_30_230
*2745 FILLER_30_233
*2746 FILLER_30_236
*2747 FILLER_30_239
*2748 FILLER_30_24
*2749 FILLER_30_242
*2750 FILLER_30_245
*2751 FILLER_30_248
*2752 FILLER_30_251
*2753 FILLER_30_253
*2754 FILLER_30_256
*2755 FILLER_30_259
*2756 FILLER_30_262
*2757 FILLER_30_265
*2758 FILLER_30_268
*2759 FILLER_30_27
*2760 FILLER_30_271
*2761 FILLER_30_274
*2762 FILLER_30_277
*2763 FILLER_30_280
*2764 FILLER_30_283
*2765 FILLER_30_286
*2766 FILLER_30_289
*2767 FILLER_30_29
*2768 FILLER_30_292
*2769 FILLER_30_295
*2770 FILLER_30_298
*2771 FILLER_30_3
*2772 FILLER_30_301
*2773 FILLER_30_304
*2774 FILLER_30_307
*2775 FILLER_30_309
*2776 FILLER_30_312
*2777 FILLER_30_315
*2778 FILLER_30_318
*2779 FILLER_30_32
*2780 FILLER_30_321
*2781 FILLER_30_324
*2782 FILLER_30_327
*2783 FILLER_30_330
*2784 FILLER_30_333
*2785 FILLER_30_35
*2786 FILLER_30_38
*2787 FILLER_30_41
*2788 FILLER_30_44
*2789 FILLER_30_47
*2790 FILLER_30_50
*2791 FILLER_30_53
*2792 FILLER_30_56
*2793 FILLER_30_59
*2794 FILLER_30_6
*2795 FILLER_30_62
*2796 FILLER_30_65
*2797 FILLER_30_68
*2798 FILLER_30_71
*2799 FILLER_30_74
*2800 FILLER_30_77
*2801 FILLER_30_80
*2802 FILLER_30_83
*2803 FILLER_30_85
*2804 FILLER_30_88
*2805 FILLER_30_9
*2806 FILLER_30_91
*2807 FILLER_30_94
*2808 FILLER_30_97
*2809 FILLER_31_102
*2810 FILLER_31_105
*2811 FILLER_31_108
*2812 FILLER_31_111
*2813 FILLER_31_113
*2814 FILLER_31_116
*2815 FILLER_31_119
*2816 FILLER_31_12
*2817 FILLER_31_122
*2818 FILLER_31_125
*2819 FILLER_31_128
*2820 FILLER_31_131
*2821 FILLER_31_134
*2822 FILLER_31_137
*2823 FILLER_31_140
*2824 FILLER_31_143
*2825 FILLER_31_146
*2826 FILLER_31_149
*2827 FILLER_31_15
*2828 FILLER_31_152
*2829 FILLER_31_155
*2830 FILLER_31_158
*2831 FILLER_31_161
*2832 FILLER_31_164
*2833 FILLER_31_167
*2834 FILLER_31_169
*2835 FILLER_31_172
*2836 FILLER_31_175
*2837 FILLER_31_178
*2838 FILLER_31_18
*2839 FILLER_31_181
*2840 FILLER_31_184
*2841 FILLER_31_187
*2842 FILLER_31_190
*2843 FILLER_31_193
*2844 FILLER_31_196
*2845 FILLER_31_199
*2846 FILLER_31_202
*2847 FILLER_31_205
*2848 FILLER_31_208
*2849 FILLER_31_21
*2850 FILLER_31_211
*2851 FILLER_31_214
*2852 FILLER_31_217
*2853 FILLER_31_220
*2854 FILLER_31_223
*2855 FILLER_31_225
*2856 FILLER_31_228
*2857 FILLER_31_231
*2858 FILLER_31_234
*2859 FILLER_31_237
*2860 FILLER_31_24
*2861 FILLER_31_240
*2862 FILLER_31_243
*2863 FILLER_31_246
*2864 FILLER_31_249
*2865 FILLER_31_252
*2866 FILLER_31_255
*2867 FILLER_31_258
*2868 FILLER_31_261
*2869 FILLER_31_264
*2870 FILLER_31_267
*2871 FILLER_31_27
*2872 FILLER_31_270
*2873 FILLER_31_273
*2874 FILLER_31_276
*2875 FILLER_31_279
*2876 FILLER_31_281
*2877 FILLER_31_284
*2878 FILLER_31_287
*2879 FILLER_31_290
*2880 FILLER_31_293
*2881 FILLER_31_296
*2882 FILLER_31_299
*2883 FILLER_31_3
*2884 FILLER_31_30
*2885 FILLER_31_302
*2886 FILLER_31_305
*2887 FILLER_31_308
*2888 FILLER_31_311
*2889 FILLER_31_314
*2890 FILLER_31_317
*2891 FILLER_31_320
*2892 FILLER_31_323
*2893 FILLER_31_326
*2894 FILLER_31_329
*2895 FILLER_31_33
*2896 FILLER_31_332
*2897 FILLER_31_36
*2898 FILLER_31_39
*2899 FILLER_31_42
*2900 FILLER_31_45
*2901 FILLER_31_48
*2902 FILLER_31_51
*2903 FILLER_31_54
*2904 FILLER_31_57
*2905 FILLER_31_6
*2906 FILLER_31_60
*2907 FILLER_31_63
*2908 FILLER_31_66
*2909 FILLER_31_69
*2910 FILLER_31_72
*2911 FILLER_31_75
*2912 FILLER_31_78
*2913 FILLER_31_81
*2914 FILLER_31_84
*2915 FILLER_31_87
*2916 FILLER_31_9
*2917 FILLER_31_90
*2918 FILLER_31_93
*2919 FILLER_31_96
*2920 FILLER_31_99
*2921 FILLER_32_100
*2922 FILLER_32_103
*2923 FILLER_32_106
*2924 FILLER_32_109
*2925 FILLER_32_112
*2926 FILLER_32_115
*2927 FILLER_32_118
*2928 FILLER_32_12
*2929 FILLER_32_121
*2930 FILLER_32_124
*2931 FILLER_32_127
*2932 FILLER_32_130
*2933 FILLER_32_133
*2934 FILLER_32_136
*2935 FILLER_32_139
*2936 FILLER_32_141
*2937 FILLER_32_144
*2938 FILLER_32_147
*2939 FILLER_32_15
*2940 FILLER_32_150
*2941 FILLER_32_153
*2942 FILLER_32_156
*2943 FILLER_32_159
*2944 FILLER_32_162
*2945 FILLER_32_165
*2946 FILLER_32_168
*2947 FILLER_32_171
*2948 FILLER_32_174
*2949 FILLER_32_177
*2950 FILLER_32_18
*2951 FILLER_32_180
*2952 FILLER_32_183
*2953 FILLER_32_186
*2954 FILLER_32_189
*2955 FILLER_32_192
*2956 FILLER_32_195
*2957 FILLER_32_197
*2958 FILLER_32_200
*2959 FILLER_32_203
*2960 FILLER_32_206
*2961 FILLER_32_209
*2962 FILLER_32_21
*2963 FILLER_32_212
*2964 FILLER_32_215
*2965 FILLER_32_218
*2966 FILLER_32_221
*2967 FILLER_32_224
*2968 FILLER_32_227
*2969 FILLER_32_230
*2970 FILLER_32_233
*2971 FILLER_32_236
*2972 FILLER_32_239
*2973 FILLER_32_24
*2974 FILLER_32_242
*2975 FILLER_32_245
*2976 FILLER_32_248
*2977 FILLER_32_251
*2978 FILLER_32_253
*2979 FILLER_32_256
*2980 FILLER_32_259
*2981 FILLER_32_262
*2982 FILLER_32_265
*2983 FILLER_32_268
*2984 FILLER_32_27
*2985 FILLER_32_271
*2986 FILLER_32_274
*2987 FILLER_32_277
*2988 FILLER_32_280
*2989 FILLER_32_283
*2990 FILLER_32_286
*2991 FILLER_32_289
*2992 FILLER_32_29
*2993 FILLER_32_292
*2994 FILLER_32_295
*2995 FILLER_32_298
*2996 FILLER_32_3
*2997 FILLER_32_301
*2998 FILLER_32_304
*2999 FILLER_32_307
*3000 FILLER_32_309
*3001 FILLER_32_312
*3002 FILLER_32_315
*3003 FILLER_32_318
*3004 FILLER_32_32
*3005 FILLER_32_321
*3006 FILLER_32_324
*3007 FILLER_32_327
*3008 FILLER_32_330
*3009 FILLER_32_333
*3010 FILLER_32_35
*3011 FILLER_32_38
*3012 FILLER_32_41
*3013 FILLER_32_44
*3014 FILLER_32_47
*3015 FILLER_32_50
*3016 FILLER_32_53
*3017 FILLER_32_56
*3018 FILLER_32_59
*3019 FILLER_32_6
*3020 FILLER_32_62
*3021 FILLER_32_65
*3022 FILLER_32_68
*3023 FILLER_32_71
*3024 FILLER_32_74
*3025 FILLER_32_77
*3026 FILLER_32_80
*3027 FILLER_32_83
*3028 FILLER_32_85
*3029 FILLER_32_88
*3030 FILLER_32_9
*3031 FILLER_32_91
*3032 FILLER_32_94
*3033 FILLER_32_97
*3034 FILLER_33_102
*3035 FILLER_33_105
*3036 FILLER_33_108
*3037 FILLER_33_111
*3038 FILLER_33_113
*3039 FILLER_33_116
*3040 FILLER_33_119
*3041 FILLER_33_12
*3042 FILLER_33_122
*3043 FILLER_33_125
*3044 FILLER_33_128
*3045 FILLER_33_131
*3046 FILLER_33_134
*3047 FILLER_33_137
*3048 FILLER_33_140
*3049 FILLER_33_143
*3050 FILLER_33_146
*3051 FILLER_33_149
*3052 FILLER_33_15
*3053 FILLER_33_152
*3054 FILLER_33_155
*3055 FILLER_33_158
*3056 FILLER_33_161
*3057 FILLER_33_164
*3058 FILLER_33_167
*3059 FILLER_33_169
*3060 FILLER_33_172
*3061 FILLER_33_175
*3062 FILLER_33_178
*3063 FILLER_33_18
*3064 FILLER_33_181
*3065 FILLER_33_184
*3066 FILLER_33_187
*3067 FILLER_33_190
*3068 FILLER_33_193
*3069 FILLER_33_196
*3070 FILLER_33_199
*3071 FILLER_33_202
*3072 FILLER_33_205
*3073 FILLER_33_208
*3074 FILLER_33_21
*3075 FILLER_33_211
*3076 FILLER_33_214
*3077 FILLER_33_217
*3078 FILLER_33_220
*3079 FILLER_33_223
*3080 FILLER_33_225
*3081 FILLER_33_228
*3082 FILLER_33_231
*3083 FILLER_33_234
*3084 FILLER_33_237
*3085 FILLER_33_24
*3086 FILLER_33_240
*3087 FILLER_33_243
*3088 FILLER_33_246
*3089 FILLER_33_249
*3090 FILLER_33_252
*3091 FILLER_33_255
*3092 FILLER_33_258
*3093 FILLER_33_261
*3094 FILLER_33_264
*3095 FILLER_33_267
*3096 FILLER_33_27
*3097 FILLER_33_270
*3098 FILLER_33_273
*3099 FILLER_33_276
*3100 FILLER_33_279
*3101 FILLER_33_281
*3102 FILLER_33_284
*3103 FILLER_33_287
*3104 FILLER_33_290
*3105 FILLER_33_293
*3106 FILLER_33_296
*3107 FILLER_33_299
*3108 FILLER_33_3
*3109 FILLER_33_30
*3110 FILLER_33_302
*3111 FILLER_33_305
*3112 FILLER_33_308
*3113 FILLER_33_311
*3114 FILLER_33_314
*3115 FILLER_33_317
*3116 FILLER_33_320
*3117 FILLER_33_323
*3118 FILLER_33_326
*3119 FILLER_33_329
*3120 FILLER_33_33
*3121 FILLER_33_332
*3122 FILLER_33_36
*3123 FILLER_33_39
*3124 FILLER_33_42
*3125 FILLER_33_45
*3126 FILLER_33_48
*3127 FILLER_33_51
*3128 FILLER_33_54
*3129 FILLER_33_57
*3130 FILLER_33_6
*3131 FILLER_33_60
*3132 FILLER_33_63
*3133 FILLER_33_66
*3134 FILLER_33_69
*3135 FILLER_33_72
*3136 FILLER_33_75
*3137 FILLER_33_78
*3138 FILLER_33_81
*3139 FILLER_33_84
*3140 FILLER_33_87
*3141 FILLER_33_9
*3142 FILLER_33_90
*3143 FILLER_33_93
*3144 FILLER_33_96
*3145 FILLER_33_99
*3146 FILLER_34_100
*3147 FILLER_34_103
*3148 FILLER_34_106
*3149 FILLER_34_109
*3150 FILLER_34_112
*3151 FILLER_34_115
*3152 FILLER_34_118
*3153 FILLER_34_12
*3154 FILLER_34_121
*3155 FILLER_34_124
*3156 FILLER_34_127
*3157 FILLER_34_130
*3158 FILLER_34_133
*3159 FILLER_34_136
*3160 FILLER_34_139
*3161 FILLER_34_141
*3162 FILLER_34_144
*3163 FILLER_34_147
*3164 FILLER_34_15
*3165 FILLER_34_150
*3166 FILLER_34_153
*3167 FILLER_34_156
*3168 FILLER_34_159
*3169 FILLER_34_162
*3170 FILLER_34_165
*3171 FILLER_34_168
*3172 FILLER_34_171
*3173 FILLER_34_174
*3174 FILLER_34_177
*3175 FILLER_34_18
*3176 FILLER_34_180
*3177 FILLER_34_183
*3178 FILLER_34_186
*3179 FILLER_34_189
*3180 FILLER_34_192
*3181 FILLER_34_195
*3182 FILLER_34_197
*3183 FILLER_34_200
*3184 FILLER_34_203
*3185 FILLER_34_206
*3186 FILLER_34_209
*3187 FILLER_34_21
*3188 FILLER_34_212
*3189 FILLER_34_215
*3190 FILLER_34_218
*3191 FILLER_34_221
*3192 FILLER_34_224
*3193 FILLER_34_227
*3194 FILLER_34_230
*3195 FILLER_34_233
*3196 FILLER_34_236
*3197 FILLER_34_239
*3198 FILLER_34_24
*3199 FILLER_34_242
*3200 FILLER_34_245
*3201 FILLER_34_248
*3202 FILLER_34_251
*3203 FILLER_34_253
*3204 FILLER_34_256
*3205 FILLER_34_259
*3206 FILLER_34_262
*3207 FILLER_34_265
*3208 FILLER_34_268
*3209 FILLER_34_27
*3210 FILLER_34_271
*3211 FILLER_34_274
*3212 FILLER_34_277
*3213 FILLER_34_280
*3214 FILLER_34_283
*3215 FILLER_34_286
*3216 FILLER_34_289
*3217 FILLER_34_29
*3218 FILLER_34_292
*3219 FILLER_34_295
*3220 FILLER_34_298
*3221 FILLER_34_3
*3222 FILLER_34_301
*3223 FILLER_34_304
*3224 FILLER_34_307
*3225 FILLER_34_309
*3226 FILLER_34_312
*3227 FILLER_34_315
*3228 FILLER_34_318
*3229 FILLER_34_32
*3230 FILLER_34_321
*3231 FILLER_34_324
*3232 FILLER_34_327
*3233 FILLER_34_330
*3234 FILLER_34_333
*3235 FILLER_34_35
*3236 FILLER_34_38
*3237 FILLER_34_41
*3238 FILLER_34_44
*3239 FILLER_34_47
*3240 FILLER_34_50
*3241 FILLER_34_53
*3242 FILLER_34_56
*3243 FILLER_34_59
*3244 FILLER_34_6
*3245 FILLER_34_62
*3246 FILLER_34_65
*3247 FILLER_34_68
*3248 FILLER_34_71
*3249 FILLER_34_74
*3250 FILLER_34_77
*3251 FILLER_34_80
*3252 FILLER_34_83
*3253 FILLER_34_85
*3254 FILLER_34_88
*3255 FILLER_34_9
*3256 FILLER_34_91
*3257 FILLER_34_94
*3258 FILLER_34_97
*3259 FILLER_35_102
*3260 FILLER_35_105
*3261 FILLER_35_108
*3262 FILLER_35_111
*3263 FILLER_35_113
*3264 FILLER_35_116
*3265 FILLER_35_119
*3266 FILLER_35_12
*3267 FILLER_35_122
*3268 FILLER_35_125
*3269 FILLER_35_128
*3270 FILLER_35_131
*3271 FILLER_35_134
*3272 FILLER_35_137
*3273 FILLER_35_140
*3274 FILLER_35_143
*3275 FILLER_35_146
*3276 FILLER_35_149
*3277 FILLER_35_15
*3278 FILLER_35_152
*3279 FILLER_35_155
*3280 FILLER_35_158
*3281 FILLER_35_161
*3282 FILLER_35_164
*3283 FILLER_35_167
*3284 FILLER_35_169
*3285 FILLER_35_172
*3286 FILLER_35_175
*3287 FILLER_35_178
*3288 FILLER_35_18
*3289 FILLER_35_181
*3290 FILLER_35_184
*3291 FILLER_35_187
*3292 FILLER_35_190
*3293 FILLER_35_193
*3294 FILLER_35_196
*3295 FILLER_35_199
*3296 FILLER_35_202
*3297 FILLER_35_205
*3298 FILLER_35_208
*3299 FILLER_35_21
*3300 FILLER_35_211
*3301 FILLER_35_214
*3302 FILLER_35_217
*3303 FILLER_35_220
*3304 FILLER_35_223
*3305 FILLER_35_225
*3306 FILLER_35_228
*3307 FILLER_35_231
*3308 FILLER_35_234
*3309 FILLER_35_237
*3310 FILLER_35_24
*3311 FILLER_35_240
*3312 FILLER_35_243
*3313 FILLER_35_246
*3314 FILLER_35_249
*3315 FILLER_35_252
*3316 FILLER_35_255
*3317 FILLER_35_258
*3318 FILLER_35_261
*3319 FILLER_35_264
*3320 FILLER_35_267
*3321 FILLER_35_27
*3322 FILLER_35_270
*3323 FILLER_35_273
*3324 FILLER_35_276
*3325 FILLER_35_279
*3326 FILLER_35_281
*3327 FILLER_35_284
*3328 FILLER_35_287
*3329 FILLER_35_290
*3330 FILLER_35_293
*3331 FILLER_35_296
*3332 FILLER_35_299
*3333 FILLER_35_3
*3334 FILLER_35_30
*3335 FILLER_35_302
*3336 FILLER_35_305
*3337 FILLER_35_308
*3338 FILLER_35_311
*3339 FILLER_35_314
*3340 FILLER_35_317
*3341 FILLER_35_320
*3342 FILLER_35_323
*3343 FILLER_35_326
*3344 FILLER_35_329
*3345 FILLER_35_33
*3346 FILLER_35_332
*3347 FILLER_35_36
*3348 FILLER_35_39
*3349 FILLER_35_42
*3350 FILLER_35_45
*3351 FILLER_35_48
*3352 FILLER_35_51
*3353 FILLER_35_54
*3354 FILLER_35_57
*3355 FILLER_35_6
*3356 FILLER_35_60
*3357 FILLER_35_63
*3358 FILLER_35_66
*3359 FILLER_35_69
*3360 FILLER_35_72
*3361 FILLER_35_75
*3362 FILLER_35_78
*3363 FILLER_35_81
*3364 FILLER_35_84
*3365 FILLER_35_87
*3366 FILLER_35_9
*3367 FILLER_35_90
*3368 FILLER_35_93
*3369 FILLER_35_96
*3370 FILLER_35_99
*3371 FILLER_36_100
*3372 FILLER_36_103
*3373 FILLER_36_106
*3374 FILLER_36_109
*3375 FILLER_36_112
*3376 FILLER_36_115
*3377 FILLER_36_118
*3378 FILLER_36_12
*3379 FILLER_36_121
*3380 FILLER_36_124
*3381 FILLER_36_127
*3382 FILLER_36_130
*3383 FILLER_36_133
*3384 FILLER_36_136
*3385 FILLER_36_139
*3386 FILLER_36_141
*3387 FILLER_36_144
*3388 FILLER_36_147
*3389 FILLER_36_15
*3390 FILLER_36_150
*3391 FILLER_36_153
*3392 FILLER_36_156
*3393 FILLER_36_159
*3394 FILLER_36_162
*3395 FILLER_36_165
*3396 FILLER_36_168
*3397 FILLER_36_171
*3398 FILLER_36_174
*3399 FILLER_36_177
*3400 FILLER_36_18
*3401 FILLER_36_180
*3402 FILLER_36_183
*3403 FILLER_36_186
*3404 FILLER_36_189
*3405 FILLER_36_192
*3406 FILLER_36_195
*3407 FILLER_36_197
*3408 FILLER_36_200
*3409 FILLER_36_203
*3410 FILLER_36_206
*3411 FILLER_36_209
*3412 FILLER_36_21
*3413 FILLER_36_212
*3414 FILLER_36_215
*3415 FILLER_36_218
*3416 FILLER_36_221
*3417 FILLER_36_224
*3418 FILLER_36_227
*3419 FILLER_36_230
*3420 FILLER_36_233
*3421 FILLER_36_236
*3422 FILLER_36_239
*3423 FILLER_36_24
*3424 FILLER_36_242
*3425 FILLER_36_245
*3426 FILLER_36_248
*3427 FILLER_36_251
*3428 FILLER_36_253
*3429 FILLER_36_256
*3430 FILLER_36_259
*3431 FILLER_36_262
*3432 FILLER_36_265
*3433 FILLER_36_268
*3434 FILLER_36_27
*3435 FILLER_36_271
*3436 FILLER_36_274
*3437 FILLER_36_277
*3438 FILLER_36_280
*3439 FILLER_36_283
*3440 FILLER_36_286
*3441 FILLER_36_289
*3442 FILLER_36_29
*3443 FILLER_36_292
*3444 FILLER_36_295
*3445 FILLER_36_298
*3446 FILLER_36_3
*3447 FILLER_36_301
*3448 FILLER_36_304
*3449 FILLER_36_307
*3450 FILLER_36_309
*3451 FILLER_36_312
*3452 FILLER_36_315
*3453 FILLER_36_318
*3454 FILLER_36_32
*3455 FILLER_36_321
*3456 FILLER_36_324
*3457 FILLER_36_327
*3458 FILLER_36_330
*3459 FILLER_36_333
*3460 FILLER_36_35
*3461 FILLER_36_38
*3462 FILLER_36_41
*3463 FILLER_36_44
*3464 FILLER_36_47
*3465 FILLER_36_50
*3466 FILLER_36_53
*3467 FILLER_36_56
*3468 FILLER_36_59
*3469 FILLER_36_6
*3470 FILLER_36_62
*3471 FILLER_36_65
*3472 FILLER_36_68
*3473 FILLER_36_71
*3474 FILLER_36_74
*3475 FILLER_36_77
*3476 FILLER_36_80
*3477 FILLER_36_83
*3478 FILLER_36_85
*3479 FILLER_36_88
*3480 FILLER_36_9
*3481 FILLER_36_91
*3482 FILLER_36_94
*3483 FILLER_36_97
*3484 FILLER_37_102
*3485 FILLER_37_105
*3486 FILLER_37_108
*3487 FILLER_37_111
*3488 FILLER_37_113
*3489 FILLER_37_116
*3490 FILLER_37_119
*3491 FILLER_37_12
*3492 FILLER_37_122
*3493 FILLER_37_125
*3494 FILLER_37_128
*3495 FILLER_37_131
*3496 FILLER_37_134
*3497 FILLER_37_137
*3498 FILLER_37_140
*3499 FILLER_37_143
*3500 FILLER_37_146
*3501 FILLER_37_149
*3502 FILLER_37_15
*3503 FILLER_37_152
*3504 FILLER_37_155
*3505 FILLER_37_158
*3506 FILLER_37_161
*3507 FILLER_37_164
*3508 FILLER_37_167
*3509 FILLER_37_169
*3510 FILLER_37_172
*3511 FILLER_37_175
*3512 FILLER_37_178
*3513 FILLER_37_18
*3514 FILLER_37_181
*3515 FILLER_37_184
*3516 FILLER_37_187
*3517 FILLER_37_190
*3518 FILLER_37_193
*3519 FILLER_37_196
*3520 FILLER_37_199
*3521 FILLER_37_202
*3522 FILLER_37_205
*3523 FILLER_37_208
*3524 FILLER_37_21
*3525 FILLER_37_211
*3526 FILLER_37_214
*3527 FILLER_37_217
*3528 FILLER_37_222
*3529 FILLER_37_225
*3530 FILLER_37_228
*3531 FILLER_37_231
*3532 FILLER_37_24
*3533 FILLER_37_240
*3534 FILLER_37_243
*3535 FILLER_37_246
*3536 FILLER_37_249
*3537 FILLER_37_252
*3538 FILLER_37_255
*3539 FILLER_37_258
*3540 FILLER_37_262
*3541 FILLER_37_268
*3542 FILLER_37_27
*3543 FILLER_37_271
*3544 FILLER_37_274
*3545 FILLER_37_278
*3546 FILLER_37_281
*3547 FILLER_37_299
*3548 FILLER_37_3
*3549 FILLER_37_30
*3550 FILLER_37_302
*3551 FILLER_37_305
*3552 FILLER_37_308
*3553 FILLER_37_311
*3554 FILLER_37_314
*3555 FILLER_37_317
*3556 FILLER_37_320
*3557 FILLER_37_323
*3558 FILLER_37_326
*3559 FILLER_37_329
*3560 FILLER_37_33
*3561 FILLER_37_332
*3562 FILLER_37_36
*3563 FILLER_37_39
*3564 FILLER_37_42
*3565 FILLER_37_45
*3566 FILLER_37_48
*3567 FILLER_37_51
*3568 FILLER_37_54
*3569 FILLER_37_57
*3570 FILLER_37_6
*3571 FILLER_37_60
*3572 FILLER_37_63
*3573 FILLER_37_66
*3574 FILLER_37_69
*3575 FILLER_37_72
*3576 FILLER_37_75
*3577 FILLER_37_78
*3578 FILLER_37_81
*3579 FILLER_37_84
*3580 FILLER_37_87
*3581 FILLER_37_9
*3582 FILLER_37_90
*3583 FILLER_37_93
*3584 FILLER_37_96
*3585 FILLER_37_99
*3586 FILLER_38_100
*3587 FILLER_38_106
*3588 FILLER_38_113
*3589 FILLER_38_118
*3590 FILLER_38_12
*3591 FILLER_38_124
*3592 FILLER_38_130
*3593 FILLER_38_136
*3594 FILLER_38_141
*3595 FILLER_38_144
*3596 FILLER_38_148
*3597 FILLER_38_15
*3598 FILLER_38_154
*3599 FILLER_38_160
*3600 FILLER_38_166
*3601 FILLER_38_172
*3602 FILLER_38_178
*3603 FILLER_38_18
*3604 FILLER_38_184
*3605 FILLER_38_190
*3606 FILLER_38_197
*3607 FILLER_38_200
*3608 FILLER_38_203
*3609 FILLER_38_206
*3610 FILLER_38_209
*3611 FILLER_38_21
*3612 FILLER_38_212
*3613 FILLER_38_222
*3614 FILLER_38_24
*3615 FILLER_38_27
*3616 FILLER_38_287
*3617 FILLER_38_29
*3618 FILLER_38_3
*3619 FILLER_38_303
*3620 FILLER_38_306
*3621 FILLER_38_309
*3622 FILLER_38_312
*3623 FILLER_38_32
*3624 FILLER_38_321
*3625 FILLER_38_324
*3626 FILLER_38_327
*3627 FILLER_38_330
*3628 FILLER_38_333
*3629 FILLER_38_35
*3630 FILLER_38_38
*3631 FILLER_38_41
*3632 FILLER_38_44
*3633 FILLER_38_47
*3634 FILLER_38_50
*3635 FILLER_38_53
*3636 FILLER_38_57
*3637 FILLER_38_6
*3638 FILLER_38_60
*3639 FILLER_38_64
*3640 FILLER_38_70
*3641 FILLER_38_76
*3642 FILLER_38_82
*3643 FILLER_38_88
*3644 FILLER_38_9
*3645 FILLER_38_94
*3646 FILLER_3_102
*3647 FILLER_3_105
*3648 FILLER_3_108
*3649 FILLER_3_111
*3650 FILLER_3_113
*3651 FILLER_3_116
*3652 FILLER_3_119
*3653 FILLER_3_12
*3654 FILLER_3_122
*3655 FILLER_3_125
*3656 FILLER_3_128
*3657 FILLER_3_131
*3658 FILLER_3_134
*3659 FILLER_3_137
*3660 FILLER_3_140
*3661 FILLER_3_143
*3662 FILLER_3_146
*3663 FILLER_3_149
*3664 FILLER_3_15
*3665 FILLER_3_152
*3666 FILLER_3_155
*3667 FILLER_3_158
*3668 FILLER_3_161
*3669 FILLER_3_164
*3670 FILLER_3_167
*3671 FILLER_3_169
*3672 FILLER_3_172
*3673 FILLER_3_175
*3674 FILLER_3_178
*3675 FILLER_3_18
*3676 FILLER_3_181
*3677 FILLER_3_184
*3678 FILLER_3_187
*3679 FILLER_3_190
*3680 FILLER_3_193
*3681 FILLER_3_196
*3682 FILLER_3_199
*3683 FILLER_3_202
*3684 FILLER_3_205
*3685 FILLER_3_208
*3686 FILLER_3_21
*3687 FILLER_3_211
*3688 FILLER_3_214
*3689 FILLER_3_217
*3690 FILLER_3_220
*3691 FILLER_3_223
*3692 FILLER_3_225
*3693 FILLER_3_228
*3694 FILLER_3_231
*3695 FILLER_3_234
*3696 FILLER_3_237
*3697 FILLER_3_24
*3698 FILLER_3_240
*3699 FILLER_3_243
*3700 FILLER_3_246
*3701 FILLER_3_249
*3702 FILLER_3_252
*3703 FILLER_3_255
*3704 FILLER_3_258
*3705 FILLER_3_261
*3706 FILLER_3_264
*3707 FILLER_3_267
*3708 FILLER_3_27
*3709 FILLER_3_270
*3710 FILLER_3_273
*3711 FILLER_3_276
*3712 FILLER_3_279
*3713 FILLER_3_281
*3714 FILLER_3_284
*3715 FILLER_3_287
*3716 FILLER_3_290
*3717 FILLER_3_293
*3718 FILLER_3_296
*3719 FILLER_3_299
*3720 FILLER_3_3
*3721 FILLER_3_30
*3722 FILLER_3_302
*3723 FILLER_3_305
*3724 FILLER_3_308
*3725 FILLER_3_311
*3726 FILLER_3_314
*3727 FILLER_3_317
*3728 FILLER_3_320
*3729 FILLER_3_323
*3730 FILLER_3_326
*3731 FILLER_3_329
*3732 FILLER_3_33
*3733 FILLER_3_332
*3734 FILLER_3_36
*3735 FILLER_3_39
*3736 FILLER_3_42
*3737 FILLER_3_45
*3738 FILLER_3_48
*3739 FILLER_3_51
*3740 FILLER_3_54
*3741 FILLER_3_57
*3742 FILLER_3_6
*3743 FILLER_3_60
*3744 FILLER_3_63
*3745 FILLER_3_66
*3746 FILLER_3_69
*3747 FILLER_3_72
*3748 FILLER_3_75
*3749 FILLER_3_78
*3750 FILLER_3_81
*3751 FILLER_3_84
*3752 FILLER_3_87
*3753 FILLER_3_9
*3754 FILLER_3_90
*3755 FILLER_3_93
*3756 FILLER_3_96
*3757 FILLER_3_99
*3758 FILLER_4_100
*3759 FILLER_4_103
*3760 FILLER_4_106
*3761 FILLER_4_109
*3762 FILLER_4_112
*3763 FILLER_4_115
*3764 FILLER_4_118
*3765 FILLER_4_12
*3766 FILLER_4_121
*3767 FILLER_4_124
*3768 FILLER_4_127
*3769 FILLER_4_130
*3770 FILLER_4_133
*3771 FILLER_4_136
*3772 FILLER_4_139
*3773 FILLER_4_141
*3774 FILLER_4_144
*3775 FILLER_4_147
*3776 FILLER_4_15
*3777 FILLER_4_150
*3778 FILLER_4_153
*3779 FILLER_4_156
*3780 FILLER_4_159
*3781 FILLER_4_162
*3782 FILLER_4_165
*3783 FILLER_4_168
*3784 FILLER_4_171
*3785 FILLER_4_174
*3786 FILLER_4_177
*3787 FILLER_4_18
*3788 FILLER_4_180
*3789 FILLER_4_183
*3790 FILLER_4_186
*3791 FILLER_4_189
*3792 FILLER_4_192
*3793 FILLER_4_195
*3794 FILLER_4_197
*3795 FILLER_4_200
*3796 FILLER_4_203
*3797 FILLER_4_206
*3798 FILLER_4_209
*3799 FILLER_4_21
*3800 FILLER_4_212
*3801 FILLER_4_215
*3802 FILLER_4_218
*3803 FILLER_4_221
*3804 FILLER_4_224
*3805 FILLER_4_227
*3806 FILLER_4_230
*3807 FILLER_4_233
*3808 FILLER_4_236
*3809 FILLER_4_239
*3810 FILLER_4_24
*3811 FILLER_4_242
*3812 FILLER_4_245
*3813 FILLER_4_248
*3814 FILLER_4_251
*3815 FILLER_4_253
*3816 FILLER_4_256
*3817 FILLER_4_259
*3818 FILLER_4_262
*3819 FILLER_4_265
*3820 FILLER_4_268
*3821 FILLER_4_27
*3822 FILLER_4_271
*3823 FILLER_4_274
*3824 FILLER_4_277
*3825 FILLER_4_280
*3826 FILLER_4_283
*3827 FILLER_4_286
*3828 FILLER_4_289
*3829 FILLER_4_29
*3830 FILLER_4_292
*3831 FILLER_4_295
*3832 FILLER_4_298
*3833 FILLER_4_3
*3834 FILLER_4_301
*3835 FILLER_4_304
*3836 FILLER_4_307
*3837 FILLER_4_309
*3838 FILLER_4_312
*3839 FILLER_4_315
*3840 FILLER_4_318
*3841 FILLER_4_32
*3842 FILLER_4_321
*3843 FILLER_4_324
*3844 FILLER_4_327
*3845 FILLER_4_330
*3846 FILLER_4_333
*3847 FILLER_4_35
*3848 FILLER_4_38
*3849 FILLER_4_41
*3850 FILLER_4_44
*3851 FILLER_4_47
*3852 FILLER_4_50
*3853 FILLER_4_53
*3854 FILLER_4_56
*3855 FILLER_4_59
*3856 FILLER_4_6
*3857 FILLER_4_62
*3858 FILLER_4_65
*3859 FILLER_4_68
*3860 FILLER_4_71
*3861 FILLER_4_74
*3862 FILLER_4_77
*3863 FILLER_4_80
*3864 FILLER_4_83
*3865 FILLER_4_85
*3866 FILLER_4_88
*3867 FILLER_4_9
*3868 FILLER_4_91
*3869 FILLER_4_94
*3870 FILLER_4_97
*3871 FILLER_5_102
*3872 FILLER_5_105
*3873 FILLER_5_108
*3874 FILLER_5_111
*3875 FILLER_5_113
*3876 FILLER_5_116
*3877 FILLER_5_119
*3878 FILLER_5_12
*3879 FILLER_5_122
*3880 FILLER_5_125
*3881 FILLER_5_128
*3882 FILLER_5_131
*3883 FILLER_5_134
*3884 FILLER_5_137
*3885 FILLER_5_140
*3886 FILLER_5_143
*3887 FILLER_5_146
*3888 FILLER_5_149
*3889 FILLER_5_15
*3890 FILLER_5_152
*3891 FILLER_5_155
*3892 FILLER_5_158
*3893 FILLER_5_161
*3894 FILLER_5_164
*3895 FILLER_5_167
*3896 FILLER_5_169
*3897 FILLER_5_172
*3898 FILLER_5_175
*3899 FILLER_5_178
*3900 FILLER_5_18
*3901 FILLER_5_181
*3902 FILLER_5_184
*3903 FILLER_5_187
*3904 FILLER_5_190
*3905 FILLER_5_193
*3906 FILLER_5_196
*3907 FILLER_5_199
*3908 FILLER_5_202
*3909 FILLER_5_205
*3910 FILLER_5_208
*3911 FILLER_5_21
*3912 FILLER_5_211
*3913 FILLER_5_214
*3914 FILLER_5_217
*3915 FILLER_5_220
*3916 FILLER_5_223
*3917 FILLER_5_225
*3918 FILLER_5_228
*3919 FILLER_5_231
*3920 FILLER_5_234
*3921 FILLER_5_237
*3922 FILLER_5_24
*3923 FILLER_5_240
*3924 FILLER_5_243
*3925 FILLER_5_246
*3926 FILLER_5_249
*3927 FILLER_5_252
*3928 FILLER_5_255
*3929 FILLER_5_258
*3930 FILLER_5_261
*3931 FILLER_5_264
*3932 FILLER_5_267
*3933 FILLER_5_27
*3934 FILLER_5_270
*3935 FILLER_5_273
*3936 FILLER_5_276
*3937 FILLER_5_279
*3938 FILLER_5_281
*3939 FILLER_5_284
*3940 FILLER_5_287
*3941 FILLER_5_290
*3942 FILLER_5_293
*3943 FILLER_5_296
*3944 FILLER_5_299
*3945 FILLER_5_3
*3946 FILLER_5_30
*3947 FILLER_5_302
*3948 FILLER_5_305
*3949 FILLER_5_308
*3950 FILLER_5_311
*3951 FILLER_5_314
*3952 FILLER_5_317
*3953 FILLER_5_320
*3954 FILLER_5_323
*3955 FILLER_5_326
*3956 FILLER_5_329
*3957 FILLER_5_33
*3958 FILLER_5_332
*3959 FILLER_5_36
*3960 FILLER_5_39
*3961 FILLER_5_42
*3962 FILLER_5_45
*3963 FILLER_5_48
*3964 FILLER_5_51
*3965 FILLER_5_54
*3966 FILLER_5_57
*3967 FILLER_5_6
*3968 FILLER_5_60
*3969 FILLER_5_63
*3970 FILLER_5_66
*3971 FILLER_5_69
*3972 FILLER_5_72
*3973 FILLER_5_75
*3974 FILLER_5_78
*3975 FILLER_5_81
*3976 FILLER_5_84
*3977 FILLER_5_87
*3978 FILLER_5_9
*3979 FILLER_5_90
*3980 FILLER_5_93
*3981 FILLER_5_96
*3982 FILLER_5_99
*3983 FILLER_6_100
*3984 FILLER_6_103
*3985 FILLER_6_106
*3986 FILLER_6_109
*3987 FILLER_6_112
*3988 FILLER_6_115
*3989 FILLER_6_118
*3990 FILLER_6_12
*3991 FILLER_6_121
*3992 FILLER_6_124
*3993 FILLER_6_127
*3994 FILLER_6_130
*3995 FILLER_6_133
*3996 FILLER_6_136
*3997 FILLER_6_139
*3998 FILLER_6_141
*3999 FILLER_6_144
*4000 FILLER_6_147
*4001 FILLER_6_15
*4002 FILLER_6_150
*4003 FILLER_6_153
*4004 FILLER_6_156
*4005 FILLER_6_159
*4006 FILLER_6_162
*4007 FILLER_6_165
*4008 FILLER_6_168
*4009 FILLER_6_171
*4010 FILLER_6_174
*4011 FILLER_6_177
*4012 FILLER_6_18
*4013 FILLER_6_180
*4014 FILLER_6_183
*4015 FILLER_6_186
*4016 FILLER_6_189
*4017 FILLER_6_192
*4018 FILLER_6_195
*4019 FILLER_6_197
*4020 FILLER_6_200
*4021 FILLER_6_203
*4022 FILLER_6_206
*4023 FILLER_6_209
*4024 FILLER_6_21
*4025 FILLER_6_212
*4026 FILLER_6_215
*4027 FILLER_6_218
*4028 FILLER_6_221
*4029 FILLER_6_224
*4030 FILLER_6_227
*4031 FILLER_6_230
*4032 FILLER_6_233
*4033 FILLER_6_236
*4034 FILLER_6_239
*4035 FILLER_6_24
*4036 FILLER_6_242
*4037 FILLER_6_245
*4038 FILLER_6_248
*4039 FILLER_6_251
*4040 FILLER_6_253
*4041 FILLER_6_256
*4042 FILLER_6_259
*4043 FILLER_6_262
*4044 FILLER_6_265
*4045 FILLER_6_268
*4046 FILLER_6_27
*4047 FILLER_6_271
*4048 FILLER_6_274
*4049 FILLER_6_277
*4050 FILLER_6_280
*4051 FILLER_6_283
*4052 FILLER_6_286
*4053 FILLER_6_289
*4054 FILLER_6_29
*4055 FILLER_6_292
*4056 FILLER_6_295
*4057 FILLER_6_298
*4058 FILLER_6_3
*4059 FILLER_6_301
*4060 FILLER_6_304
*4061 FILLER_6_307
*4062 FILLER_6_309
*4063 FILLER_6_312
*4064 FILLER_6_315
*4065 FILLER_6_318
*4066 FILLER_6_32
*4067 FILLER_6_321
*4068 FILLER_6_324
*4069 FILLER_6_327
*4070 FILLER_6_330
*4071 FILLER_6_333
*4072 FILLER_6_35
*4073 FILLER_6_38
*4074 FILLER_6_41
*4075 FILLER_6_44
*4076 FILLER_6_47
*4077 FILLER_6_50
*4078 FILLER_6_53
*4079 FILLER_6_56
*4080 FILLER_6_59
*4081 FILLER_6_6
*4082 FILLER_6_62
*4083 FILLER_6_65
*4084 FILLER_6_68
*4085 FILLER_6_71
*4086 FILLER_6_74
*4087 FILLER_6_77
*4088 FILLER_6_80
*4089 FILLER_6_83
*4090 FILLER_6_85
*4091 FILLER_6_88
*4092 FILLER_6_9
*4093 FILLER_6_91
*4094 FILLER_6_94
*4095 FILLER_6_97
*4096 FILLER_7_102
*4097 FILLER_7_105
*4098 FILLER_7_108
*4099 FILLER_7_111
*4100 FILLER_7_113
*4101 FILLER_7_116
*4102 FILLER_7_119
*4103 FILLER_7_12
*4104 FILLER_7_122
*4105 FILLER_7_125
*4106 FILLER_7_128
*4107 FILLER_7_131
*4108 FILLER_7_134
*4109 FILLER_7_137
*4110 FILLER_7_140
*4111 FILLER_7_143
*4112 FILLER_7_146
*4113 FILLER_7_149
*4114 FILLER_7_15
*4115 FILLER_7_152
*4116 FILLER_7_155
*4117 FILLER_7_158
*4118 FILLER_7_161
*4119 FILLER_7_164
*4120 FILLER_7_167
*4121 FILLER_7_169
*4122 FILLER_7_172
*4123 FILLER_7_175
*4124 FILLER_7_178
*4125 FILLER_7_18
*4126 FILLER_7_181
*4127 FILLER_7_184
*4128 FILLER_7_187
*4129 FILLER_7_190
*4130 FILLER_7_193
*4131 FILLER_7_196
*4132 FILLER_7_199
*4133 FILLER_7_202
*4134 FILLER_7_205
*4135 FILLER_7_208
*4136 FILLER_7_21
*4137 FILLER_7_211
*4138 FILLER_7_214
*4139 FILLER_7_217
*4140 FILLER_7_220
*4141 FILLER_7_223
*4142 FILLER_7_225
*4143 FILLER_7_228
*4144 FILLER_7_231
*4145 FILLER_7_234
*4146 FILLER_7_237
*4147 FILLER_7_24
*4148 FILLER_7_240
*4149 FILLER_7_243
*4150 FILLER_7_246
*4151 FILLER_7_249
*4152 FILLER_7_252
*4153 FILLER_7_255
*4154 FILLER_7_258
*4155 FILLER_7_261
*4156 FILLER_7_264
*4157 FILLER_7_267
*4158 FILLER_7_27
*4159 FILLER_7_270
*4160 FILLER_7_273
*4161 FILLER_7_276
*4162 FILLER_7_279
*4163 FILLER_7_281
*4164 FILLER_7_284
*4165 FILLER_7_287
*4166 FILLER_7_290
*4167 FILLER_7_293
*4168 FILLER_7_296
*4169 FILLER_7_299
*4170 FILLER_7_3
*4171 FILLER_7_30
*4172 FILLER_7_302
*4173 FILLER_7_305
*4174 FILLER_7_308
*4175 FILLER_7_311
*4176 FILLER_7_314
*4177 FILLER_7_317
*4178 FILLER_7_320
*4179 FILLER_7_323
*4180 FILLER_7_326
*4181 FILLER_7_329
*4182 FILLER_7_33
*4183 FILLER_7_332
*4184 FILLER_7_36
*4185 FILLER_7_39
*4186 FILLER_7_42
*4187 FILLER_7_45
*4188 FILLER_7_48
*4189 FILLER_7_51
*4190 FILLER_7_54
*4191 FILLER_7_57
*4192 FILLER_7_6
*4193 FILLER_7_60
*4194 FILLER_7_63
*4195 FILLER_7_66
*4196 FILLER_7_69
*4197 FILLER_7_72
*4198 FILLER_7_75
*4199 FILLER_7_78
*4200 FILLER_7_81
*4201 FILLER_7_84
*4202 FILLER_7_87
*4203 FILLER_7_9
*4204 FILLER_7_90
*4205 FILLER_7_93
*4206 FILLER_7_96
*4207 FILLER_7_99
*4208 FILLER_8_100
*4209 FILLER_8_103
*4210 FILLER_8_106
*4211 FILLER_8_109
*4212 FILLER_8_112
*4213 FILLER_8_115
*4214 FILLER_8_118
*4215 FILLER_8_12
*4216 FILLER_8_121
*4217 FILLER_8_124
*4218 FILLER_8_127
*4219 FILLER_8_130
*4220 FILLER_8_133
*4221 FILLER_8_136
*4222 FILLER_8_139
*4223 FILLER_8_141
*4224 FILLER_8_144
*4225 FILLER_8_147
*4226 FILLER_8_15
*4227 FILLER_8_150
*4228 FILLER_8_153
*4229 FILLER_8_156
*4230 FILLER_8_159
*4231 FILLER_8_162
*4232 FILLER_8_165
*4233 FILLER_8_168
*4234 FILLER_8_171
*4235 FILLER_8_174
*4236 FILLER_8_177
*4237 FILLER_8_18
*4238 FILLER_8_180
*4239 FILLER_8_183
*4240 FILLER_8_186
*4241 FILLER_8_189
*4242 FILLER_8_192
*4243 FILLER_8_195
*4244 FILLER_8_197
*4245 FILLER_8_200
*4246 FILLER_8_203
*4247 FILLER_8_206
*4248 FILLER_8_209
*4249 FILLER_8_21
*4250 FILLER_8_212
*4251 FILLER_8_215
*4252 FILLER_8_218
*4253 FILLER_8_221
*4254 FILLER_8_224
*4255 FILLER_8_227
*4256 FILLER_8_230
*4257 FILLER_8_233
*4258 FILLER_8_236
*4259 FILLER_8_239
*4260 FILLER_8_24
*4261 FILLER_8_242
*4262 FILLER_8_245
*4263 FILLER_8_248
*4264 FILLER_8_251
*4265 FILLER_8_253
*4266 FILLER_8_256
*4267 FILLER_8_259
*4268 FILLER_8_262
*4269 FILLER_8_265
*4270 FILLER_8_268
*4271 FILLER_8_27
*4272 FILLER_8_271
*4273 FILLER_8_274
*4274 FILLER_8_277
*4275 FILLER_8_280
*4276 FILLER_8_283
*4277 FILLER_8_286
*4278 FILLER_8_289
*4279 FILLER_8_29
*4280 FILLER_8_292
*4281 FILLER_8_295
*4282 FILLER_8_298
*4283 FILLER_8_3
*4284 FILLER_8_301
*4285 FILLER_8_304
*4286 FILLER_8_307
*4287 FILLER_8_309
*4288 FILLER_8_312
*4289 FILLER_8_315
*4290 FILLER_8_318
*4291 FILLER_8_32
*4292 FILLER_8_321
*4293 FILLER_8_324
*4294 FILLER_8_327
*4295 FILLER_8_330
*4296 FILLER_8_333
*4297 FILLER_8_35
*4298 FILLER_8_38
*4299 FILLER_8_41
*4300 FILLER_8_44
*4301 FILLER_8_47
*4302 FILLER_8_50
*4303 FILLER_8_53
*4304 FILLER_8_56
*4305 FILLER_8_59
*4306 FILLER_8_6
*4307 FILLER_8_62
*4308 FILLER_8_65
*4309 FILLER_8_68
*4310 FILLER_8_71
*4311 FILLER_8_74
*4312 FILLER_8_77
*4313 FILLER_8_80
*4314 FILLER_8_83
*4315 FILLER_8_85
*4316 FILLER_8_88
*4317 FILLER_8_9
*4318 FILLER_8_91
*4319 FILLER_8_94
*4320 FILLER_8_97
*4321 FILLER_9_102
*4322 FILLER_9_105
*4323 FILLER_9_108
*4324 FILLER_9_111
*4325 FILLER_9_113
*4326 FILLER_9_116
*4327 FILLER_9_119
*4328 FILLER_9_12
*4329 FILLER_9_122
*4330 FILLER_9_125
*4331 FILLER_9_128
*4332 FILLER_9_131
*4333 FILLER_9_134
*4334 FILLER_9_137
*4335 FILLER_9_140
*4336 FILLER_9_143
*4337 FILLER_9_146
*4338 FILLER_9_149
*4339 FILLER_9_15
*4340 FILLER_9_152
*4341 FILLER_9_155
*4342 FILLER_9_158
*4343 FILLER_9_161
*4344 FILLER_9_164
*4345 FILLER_9_167
*4346 FILLER_9_169
*4347 FILLER_9_172
*4348 FILLER_9_175
*4349 FILLER_9_178
*4350 FILLER_9_18
*4351 FILLER_9_181
*4352 FILLER_9_184
*4353 FILLER_9_187
*4354 FILLER_9_190
*4355 FILLER_9_193
*4356 FILLER_9_196
*4357 FILLER_9_199
*4358 FILLER_9_202
*4359 FILLER_9_205
*4360 FILLER_9_208
*4361 FILLER_9_21
*4362 FILLER_9_211
*4363 FILLER_9_214
*4364 FILLER_9_217
*4365 FILLER_9_220
*4366 FILLER_9_223
*4367 FILLER_9_225
*4368 FILLER_9_228
*4369 FILLER_9_231
*4370 FILLER_9_234
*4371 FILLER_9_237
*4372 FILLER_9_24
*4373 FILLER_9_240
*4374 FILLER_9_243
*4375 FILLER_9_246
*4376 FILLER_9_249
*4377 FILLER_9_252
*4378 FILLER_9_255
*4379 FILLER_9_258
*4380 FILLER_9_261
*4381 FILLER_9_264
*4382 FILLER_9_267
*4383 FILLER_9_27
*4384 FILLER_9_270
*4385 FILLER_9_273
*4386 FILLER_9_276
*4387 FILLER_9_279
*4388 FILLER_9_281
*4389 FILLER_9_284
*4390 FILLER_9_287
*4391 FILLER_9_290
*4392 FILLER_9_293
*4393 FILLER_9_296
*4394 FILLER_9_299
*4395 FILLER_9_3
*4396 FILLER_9_30
*4397 FILLER_9_302
*4398 FILLER_9_305
*4399 FILLER_9_308
*4400 FILLER_9_311
*4401 FILLER_9_314
*4402 FILLER_9_317
*4403 FILLER_9_320
*4404 FILLER_9_323
*4405 FILLER_9_326
*4406 FILLER_9_329
*4407 FILLER_9_33
*4408 FILLER_9_332
*4409 FILLER_9_36
*4410 FILLER_9_39
*4411 FILLER_9_42
*4412 FILLER_9_45
*4413 FILLER_9_48
*4414 FILLER_9_51
*4415 FILLER_9_54
*4416 FILLER_9_57
*4417 FILLER_9_6
*4418 FILLER_9_60
*4419 FILLER_9_63
*4420 FILLER_9_66
*4421 FILLER_9_69
*4422 FILLER_9_72
*4423 FILLER_9_75
*4424 FILLER_9_78
*4425 FILLER_9_81
*4426 FILLER_9_84
*4427 FILLER_9_87
*4428 FILLER_9_9
*4429 FILLER_9_90
*4430 FILLER_9_93
*4431 FILLER_9_96
*4432 FILLER_9_99
*4433 PHY_EDGE_ROW_0_Left_39
*4434 PHY_EDGE_ROW_0_Right_0
*4435 PHY_EDGE_ROW_10_Left_49
*4436 PHY_EDGE_ROW_10_Right_10
*4437 PHY_EDGE_ROW_11_Left_50
*4438 PHY_EDGE_ROW_11_Right_11
*4439 PHY_EDGE_ROW_12_Left_51
*4440 PHY_EDGE_ROW_12_Right_12
*4441 PHY_EDGE_ROW_13_Left_52
*4442 PHY_EDGE_ROW_13_Right_13
*4443 PHY_EDGE_ROW_14_Left_53
*4444 PHY_EDGE_ROW_14_Right_14
*4445 PHY_EDGE_ROW_15_Left_54
*4446 PHY_EDGE_ROW_15_Right_15
*4447 PHY_EDGE_ROW_16_Left_55
*4448 PHY_EDGE_ROW_16_Right_16
*4449 PHY_EDGE_ROW_17_Left_56
*4450 PHY_EDGE_ROW_17_Right_17
*4451 PHY_EDGE_ROW_18_Left_57
*4452 PHY_EDGE_ROW_18_Right_18
*4453 PHY_EDGE_ROW_19_Left_58
*4454 PHY_EDGE_ROW_19_Right_19
*4455 PHY_EDGE_ROW_1_Left_40
*4456 PHY_EDGE_ROW_1_Right_1
*4457 PHY_EDGE_ROW_20_Left_59
*4458 PHY_EDGE_ROW_20_Right_20
*4459 PHY_EDGE_ROW_21_Left_60
*4460 PHY_EDGE_ROW_21_Right_21
*4461 PHY_EDGE_ROW_22_Left_61
*4462 PHY_EDGE_ROW_22_Right_22
*4463 PHY_EDGE_ROW_23_Left_62
*4464 PHY_EDGE_ROW_23_Right_23
*4465 PHY_EDGE_ROW_24_Left_63
*4466 PHY_EDGE_ROW_24_Right_24
*4467 PHY_EDGE_ROW_25_Left_64
*4468 PHY_EDGE_ROW_25_Right_25
*4469 PHY_EDGE_ROW_26_Left_65
*4470 PHY_EDGE_ROW_26_Right_26
*4471 PHY_EDGE_ROW_27_Left_66
*4472 PHY_EDGE_ROW_27_Right_27
*4473 PHY_EDGE_ROW_28_Left_67
*4474 PHY_EDGE_ROW_28_Right_28
*4475 PHY_EDGE_ROW_29_Left_68
*4476 PHY_EDGE_ROW_29_Right_29
*4477 PHY_EDGE_ROW_2_Left_41
*4478 PHY_EDGE_ROW_2_Right_2
*4479 PHY_EDGE_ROW_30_Left_69
*4480 PHY_EDGE_ROW_30_Right_30
*4481 PHY_EDGE_ROW_31_Left_70
*4482 PHY_EDGE_ROW_31_Right_31
*4483 PHY_EDGE_ROW_32_Left_71
*4484 PHY_EDGE_ROW_32_Right_32
*4485 PHY_EDGE_ROW_33_Left_72
*4486 PHY_EDGE_ROW_33_Right_33
*4487 PHY_EDGE_ROW_34_Left_73
*4488 PHY_EDGE_ROW_34_Right_34
*4489 PHY_EDGE_ROW_35_Left_74
*4490 PHY_EDGE_ROW_35_Right_35
*4491 PHY_EDGE_ROW_36_Left_75
*4492 PHY_EDGE_ROW_36_Right_36
*4493 PHY_EDGE_ROW_37_Left_76
*4494 PHY_EDGE_ROW_37_Right_37
*4495 PHY_EDGE_ROW_38_Left_77
*4496 PHY_EDGE_ROW_38_Right_38
*4497 PHY_EDGE_ROW_3_Left_42
*4498 PHY_EDGE_ROW_3_Right_3
*4499 PHY_EDGE_ROW_4_Left_43
*4500 PHY_EDGE_ROW_4_Right_4
*4501 PHY_EDGE_ROW_5_Left_44
*4502 PHY_EDGE_ROW_5_Right_5
*4503 PHY_EDGE_ROW_6_Left_45
*4504 PHY_EDGE_ROW_6_Right_6
*4505 PHY_EDGE_ROW_7_Left_46
*4506 PHY_EDGE_ROW_7_Right_7
*4507 PHY_EDGE_ROW_8_Left_47
*4508 PHY_EDGE_ROW_8_Right_8
*4509 PHY_EDGE_ROW_9_Left_48
*4510 PHY_EDGE_ROW_9_Right_9
*4511 TAP_TAPCELL_ROW_0_78
*4512 TAP_TAPCELL_ROW_0_79
*4513 TAP_TAPCELL_ROW_0_80
*4514 TAP_TAPCELL_ROW_0_81
*4515 TAP_TAPCELL_ROW_0_82
*4516 TAP_TAPCELL_ROW_0_83
*4517 TAP_TAPCELL_ROW_0_84
*4518 TAP_TAPCELL_ROW_0_85
*4519 TAP_TAPCELL_ROW_0_86
*4520 TAP_TAPCELL_ROW_0_87
*4521 TAP_TAPCELL_ROW_0_88
*4522 TAP_TAPCELL_ROW_10_138
*4523 TAP_TAPCELL_ROW_10_139
*4524 TAP_TAPCELL_ROW_10_140
*4525 TAP_TAPCELL_ROW_10_141
*4526 TAP_TAPCELL_ROW_10_142
*4527 TAP_TAPCELL_ROW_10_143
*4528 TAP_TAPCELL_ROW_11_144
*4529 TAP_TAPCELL_ROW_11_145
*4530 TAP_TAPCELL_ROW_11_146
*4531 TAP_TAPCELL_ROW_11_147
*4532 TAP_TAPCELL_ROW_11_148
*4533 TAP_TAPCELL_ROW_12_149
*4534 TAP_TAPCELL_ROW_12_150
*4535 TAP_TAPCELL_ROW_12_151
*4536 TAP_TAPCELL_ROW_12_152
*4537 TAP_TAPCELL_ROW_12_153
*4538 TAP_TAPCELL_ROW_12_154
*4539 TAP_TAPCELL_ROW_13_155
*4540 TAP_TAPCELL_ROW_13_156
*4541 TAP_TAPCELL_ROW_13_157
*4542 TAP_TAPCELL_ROW_13_158
*4543 TAP_TAPCELL_ROW_13_159
*4544 TAP_TAPCELL_ROW_14_160
*4545 TAP_TAPCELL_ROW_14_161
*4546 TAP_TAPCELL_ROW_14_162
*4547 TAP_TAPCELL_ROW_14_163
*4548 TAP_TAPCELL_ROW_14_164
*4549 TAP_TAPCELL_ROW_14_165
*4550 TAP_TAPCELL_ROW_15_166
*4551 TAP_TAPCELL_ROW_15_167
*4552 TAP_TAPCELL_ROW_15_168
*4553 TAP_TAPCELL_ROW_15_169
*4554 TAP_TAPCELL_ROW_15_170
*4555 TAP_TAPCELL_ROW_16_171
*4556 TAP_TAPCELL_ROW_16_172
*4557 TAP_TAPCELL_ROW_16_173
*4558 TAP_TAPCELL_ROW_16_174
*4559 TAP_TAPCELL_ROW_16_175
*4560 TAP_TAPCELL_ROW_16_176
*4561 TAP_TAPCELL_ROW_17_177
*4562 TAP_TAPCELL_ROW_17_178
*4563 TAP_TAPCELL_ROW_17_179
*4564 TAP_TAPCELL_ROW_17_180
*4565 TAP_TAPCELL_ROW_17_181
*4566 TAP_TAPCELL_ROW_18_182
*4567 TAP_TAPCELL_ROW_18_183
*4568 TAP_TAPCELL_ROW_18_184
*4569 TAP_TAPCELL_ROW_18_185
*4570 TAP_TAPCELL_ROW_18_186
*4571 TAP_TAPCELL_ROW_18_187
*4572 TAP_TAPCELL_ROW_19_188
*4573 TAP_TAPCELL_ROW_19_189
*4574 TAP_TAPCELL_ROW_19_190
*4575 TAP_TAPCELL_ROW_19_191
*4576 TAP_TAPCELL_ROW_19_192
*4577 TAP_TAPCELL_ROW_1_89
*4578 TAP_TAPCELL_ROW_1_90
*4579 TAP_TAPCELL_ROW_1_91
*4580 TAP_TAPCELL_ROW_1_92
*4581 TAP_TAPCELL_ROW_1_93
*4582 TAP_TAPCELL_ROW_20_193
*4583 TAP_TAPCELL_ROW_20_194
*4584 TAP_TAPCELL_ROW_20_195
*4585 TAP_TAPCELL_ROW_20_196
*4586 TAP_TAPCELL_ROW_20_197
*4587 TAP_TAPCELL_ROW_20_198
*4588 TAP_TAPCELL_ROW_21_199
*4589 TAP_TAPCELL_ROW_21_200
*4590 TAP_TAPCELL_ROW_21_201
*4591 TAP_TAPCELL_ROW_21_202
*4592 TAP_TAPCELL_ROW_21_203
*4593 TAP_TAPCELL_ROW_22_204
*4594 TAP_TAPCELL_ROW_22_205
*4595 TAP_TAPCELL_ROW_22_206
*4596 TAP_TAPCELL_ROW_22_207
*4597 TAP_TAPCELL_ROW_22_208
*4598 TAP_TAPCELL_ROW_22_209
*4599 TAP_TAPCELL_ROW_23_210
*4600 TAP_TAPCELL_ROW_23_211
*4601 TAP_TAPCELL_ROW_23_212
*4602 TAP_TAPCELL_ROW_23_213
*4603 TAP_TAPCELL_ROW_23_214
*4604 TAP_TAPCELL_ROW_24_215
*4605 TAP_TAPCELL_ROW_24_216
*4606 TAP_TAPCELL_ROW_24_217
*4607 TAP_TAPCELL_ROW_24_218
*4608 TAP_TAPCELL_ROW_24_219
*4609 TAP_TAPCELL_ROW_24_220
*4610 TAP_TAPCELL_ROW_25_221
*4611 TAP_TAPCELL_ROW_25_222
*4612 TAP_TAPCELL_ROW_25_223
*4613 TAP_TAPCELL_ROW_25_224
*4614 TAP_TAPCELL_ROW_25_225
*4615 TAP_TAPCELL_ROW_26_226
*4616 TAP_TAPCELL_ROW_26_227
*4617 TAP_TAPCELL_ROW_26_228
*4618 TAP_TAPCELL_ROW_26_229
*4619 TAP_TAPCELL_ROW_26_230
*4620 TAP_TAPCELL_ROW_26_231
*4621 TAP_TAPCELL_ROW_27_232
*4622 TAP_TAPCELL_ROW_27_233
*4623 TAP_TAPCELL_ROW_27_234
*4624 TAP_TAPCELL_ROW_27_235
*4625 TAP_TAPCELL_ROW_27_236
*4626 TAP_TAPCELL_ROW_28_237
*4627 TAP_TAPCELL_ROW_28_238
*4628 TAP_TAPCELL_ROW_28_239
*4629 TAP_TAPCELL_ROW_28_240
*4630 TAP_TAPCELL_ROW_28_241
*4631 TAP_TAPCELL_ROW_28_242
*4632 TAP_TAPCELL_ROW_29_243
*4633 TAP_TAPCELL_ROW_29_244
*4634 TAP_TAPCELL_ROW_29_245
*4635 TAP_TAPCELL_ROW_29_246
*4636 TAP_TAPCELL_ROW_29_247
*4637 TAP_TAPCELL_ROW_2_94
*4638 TAP_TAPCELL_ROW_2_95
*4639 TAP_TAPCELL_ROW_2_96
*4640 TAP_TAPCELL_ROW_2_97
*4641 TAP_TAPCELL_ROW_2_98
*4642 TAP_TAPCELL_ROW_2_99
*4643 TAP_TAPCELL_ROW_30_248
*4644 TAP_TAPCELL_ROW_30_249
*4645 TAP_TAPCELL_ROW_30_250
*4646 TAP_TAPCELL_ROW_30_251
*4647 TAP_TAPCELL_ROW_30_252
*4648 TAP_TAPCELL_ROW_30_253
*4649 TAP_TAPCELL_ROW_31_254
*4650 TAP_TAPCELL_ROW_31_255
*4651 TAP_TAPCELL_ROW_31_256
*4652 TAP_TAPCELL_ROW_31_257
*4653 TAP_TAPCELL_ROW_31_258
*4654 TAP_TAPCELL_ROW_32_259
*4655 TAP_TAPCELL_ROW_32_260
*4656 TAP_TAPCELL_ROW_32_261
*4657 TAP_TAPCELL_ROW_32_262
*4658 TAP_TAPCELL_ROW_32_263
*4659 TAP_TAPCELL_ROW_32_264
*4660 TAP_TAPCELL_ROW_33_265
*4661 TAP_TAPCELL_ROW_33_266
*4662 TAP_TAPCELL_ROW_33_267
*4663 TAP_TAPCELL_ROW_33_268
*4664 TAP_TAPCELL_ROW_33_269
*4665 TAP_TAPCELL_ROW_34_270
*4666 TAP_TAPCELL_ROW_34_271
*4667 TAP_TAPCELL_ROW_34_272
*4668 TAP_TAPCELL_ROW_34_273
*4669 TAP_TAPCELL_ROW_34_274
*4670 TAP_TAPCELL_ROW_34_275
*4671 TAP_TAPCELL_ROW_35_276
*4672 TAP_TAPCELL_ROW_35_277
*4673 TAP_TAPCELL_ROW_35_278
*4674 TAP_TAPCELL_ROW_35_279
*4675 TAP_TAPCELL_ROW_35_280
*4676 TAP_TAPCELL_ROW_36_281
*4677 TAP_TAPCELL_ROW_36_282
*4678 TAP_TAPCELL_ROW_36_283
*4679 TAP_TAPCELL_ROW_36_284
*4680 TAP_TAPCELL_ROW_36_285
*4681 TAP_TAPCELL_ROW_36_286
*4682 TAP_TAPCELL_ROW_37_287
*4683 TAP_TAPCELL_ROW_37_288
*4684 TAP_TAPCELL_ROW_37_289
*4685 TAP_TAPCELL_ROW_37_290
*4686 TAP_TAPCELL_ROW_37_291
*4687 TAP_TAPCELL_ROW_38_292
*4688 TAP_TAPCELL_ROW_38_293
*4689 TAP_TAPCELL_ROW_38_294
*4690 TAP_TAPCELL_ROW_38_295
*4691 TAP_TAPCELL_ROW_38_296
*4692 TAP_TAPCELL_ROW_38_297
*4693 TAP_TAPCELL_ROW_38_298
*4694 TAP_TAPCELL_ROW_38_299
*4695 TAP_TAPCELL_ROW_38_300
*4696 TAP_TAPCELL_ROW_38_301
*4697 TAP_TAPCELL_ROW_38_302
*4698 TAP_TAPCELL_ROW_3_100
*4699 TAP_TAPCELL_ROW_3_101
*4700 TAP_TAPCELL_ROW_3_102
*4701 TAP_TAPCELL_ROW_3_103
*4702 TAP_TAPCELL_ROW_3_104
*4703 TAP_TAPCELL_ROW_4_105
*4704 TAP_TAPCELL_ROW_4_106
*4705 TAP_TAPCELL_ROW_4_107
*4706 TAP_TAPCELL_ROW_4_108
*4707 TAP_TAPCELL_ROW_4_109
*4708 TAP_TAPCELL_ROW_4_110
*4709 TAP_TAPCELL_ROW_5_111
*4710 TAP_TAPCELL_ROW_5_112
*4711 TAP_TAPCELL_ROW_5_113
*4712 TAP_TAPCELL_ROW_5_114
*4713 TAP_TAPCELL_ROW_5_115
*4714 TAP_TAPCELL_ROW_6_116
*4715 TAP_TAPCELL_ROW_6_117
*4716 TAP_TAPCELL_ROW_6_118
*4717 TAP_TAPCELL_ROW_6_119
*4718 TAP_TAPCELL_ROW_6_120
*4719 TAP_TAPCELL_ROW_6_121
*4720 TAP_TAPCELL_ROW_7_122
*4721 TAP_TAPCELL_ROW_7_123
*4722 TAP_TAPCELL_ROW_7_124
*4723 TAP_TAPCELL_ROW_7_125
*4724 TAP_TAPCELL_ROW_7_126
*4725 TAP_TAPCELL_ROW_8_127
*4726 TAP_TAPCELL_ROW_8_128
*4727 TAP_TAPCELL_ROW_8_129
*4728 TAP_TAPCELL_ROW_8_130
*4729 TAP_TAPCELL_ROW_8_131
*4730 TAP_TAPCELL_ROW_8_132
*4731 TAP_TAPCELL_ROW_9_133
*4732 TAP_TAPCELL_ROW_9_134
*4733 TAP_TAPCELL_ROW_9_135
*4734 TAP_TAPCELL_ROW_9_136
*4735 TAP_TAPCELL_ROW_9_137
*4736 _00_
*4737 _24_
*4738 input1
*4739 input2
*4740 tt_um_prasa_droop_monitor
*4741 tt_um_prasa_droop_monitor_10
*4742 tt_um_prasa_droop_monitor_11
*4743 tt_um_prasa_droop_monitor_12
*4744 tt_um_prasa_droop_monitor_13
*4745 tt_um_prasa_droop_monitor_14
*4746 tt_um_prasa_droop_monitor_15
*4747 tt_um_prasa_droop_monitor_16
*4748 tt_um_prasa_droop_monitor_17
*4749 tt_um_prasa_droop_monitor_18
*4750 tt_um_prasa_droop_monitor_19
*4751 tt_um_prasa_droop_monitor_20
*4752 tt_um_prasa_droop_monitor_21
*4753 tt_um_prasa_droop_monitor_22
*4754 tt_um_prasa_droop_monitor_23
*4755 tt_um_prasa_droop_monitor_24
*4756 tt_um_prasa_droop_monitor_3
*4757 tt_um_prasa_droop_monitor_4
*4758 tt_um_prasa_droop_monitor_5
*4759 tt_um_prasa_droop_monitor_6
*4760 tt_um_prasa_droop_monitor_7
*4761 tt_um_prasa_droop_monitor_8
*4762 tt_um_prasa_droop_monitor_9

*PORTS
clk I
ena I
rst_n I
ui_in[0] I
ui_in[1] I
ui_in[2] I
ui_in[3] I
ui_in[4] I
ui_in[5] I
ui_in[6] I
ui_in[7] I
uio_in[0] I
uio_in[1] I
uio_in[2] I
uio_in[3] I
uio_in[4] I
uio_in[5] I
uio_in[6] I
uio_in[7] I
uio_oe[0] O
uio_oe[1] O
uio_oe[2] O
uio_oe[3] O
uio_oe[4] O
uio_oe[5] O
uio_oe[6] O
uio_oe[7] O
uio_out[0] O
uio_out[1] O
uio_out[2] O
uio_out[3] O
uio_out[4] O
uio_out[5] O
uio_out[6] O
uio_out[7] O
uo_out[0] O
uo_out[1] O
uo_out[2] O
uo_out[3] O
uo_out[4] O
uo_out[5] O
uo_out[6] O
uo_out[7] O

*D_NET *4 0.000534416
*CONN
*P ena I
*I *4738:A I *D sky130_fd_sc_hd__clkdlybuf4s25_1
*CAP
1 ena 0.000267208
2 *4738:A 0.000267208
3 *4738:A *4739:A 0
*RES
1 ena *4738:A 22.8157 
*END

*D_NET *6 0.000535607
*CONN
*P ui_in[0] I
*I *4739:A I *D sky130_fd_sc_hd__clkdlybuf4s25_1
*CAP
1 ui_in[0] 0.000267803
2 *4739:A 0.000267803
3 *4738:A *4739:A 0
*RES
1 ui_in[0] *4739:A 23.3163 
*END

*D_NET *22 0.00041663
*CONN
*P uio_oe[0] O
*I *4748:LO O *D sky130_fd_sc_hd__conb_1
*CAP
1 uio_oe[0] 0.000129501
2 *4748:LO 0.000129501
3 uio_oe[0] uio_oe[1] 7.88136e-05
4 uio_oe[0] uio_out[7] 7.88136e-05
*RES
1 *4748:LO uio_oe[0] 21.4044 
*END

*D_NET *23 0.00041663
*CONN
*P uio_oe[1] O
*I *4749:LO O *D sky130_fd_sc_hd__conb_1
*CAP
1 uio_oe[1] 0.000129501
2 *4749:LO 0.000129501
3 uio_oe[1] uio_oe[2] 7.88136e-05
4 uio_oe[0] uio_oe[1] 7.88136e-05
*RES
1 *4749:LO uio_oe[1] 21.4044 
*END

*D_NET *24 0.00041663
*CONN
*P uio_oe[2] O
*I *4750:LO O *D sky130_fd_sc_hd__conb_1
*CAP
1 uio_oe[2] 0.000129501
2 *4750:LO 0.000129501
3 uio_oe[2] uio_oe[3] 7.88136e-05
4 uio_oe[1] uio_oe[2] 7.88136e-05
*RES
1 *4750:LO uio_oe[2] 21.4044 
*END

*D_NET *25 0.00041663
*CONN
*P uio_oe[3] O
*I *4751:LO O *D sky130_fd_sc_hd__conb_1
*CAP
1 uio_oe[3] 0.000129501
2 *4751:LO 0.000129501
3 uio_oe[3] uio_oe[4] 7.88136e-05
4 uio_oe[2] uio_oe[3] 7.88136e-05
*RES
1 *4751:LO uio_oe[3] 21.4044 
*END

*D_NET *26 0.00041663
*CONN
*P uio_oe[4] O
*I *4752:LO O *D sky130_fd_sc_hd__conb_1
*CAP
1 uio_oe[4] 0.000129501
2 *4752:LO 0.000129501
3 uio_oe[4] uio_oe[5] 7.88136e-05
4 uio_oe[3] uio_oe[4] 7.88136e-05
*RES
1 *4752:LO uio_oe[4] 21.4044 
*END

*D_NET *27 0.00041663
*CONN
*P uio_oe[5] O
*I *4753:LO O *D sky130_fd_sc_hd__conb_1
*CAP
1 uio_oe[5] 0.000129501
2 *4753:LO 0.000129501
3 uio_oe[5] uio_oe[6] 7.88136e-05
4 uio_oe[4] uio_oe[5] 7.88136e-05
*RES
1 *4753:LO uio_oe[5] 21.4044 
*END

*D_NET *28 0.00041663
*CONN
*P uio_oe[6] O
*I *4754:LO O *D sky130_fd_sc_hd__conb_1
*CAP
1 uio_oe[6] 0.000129501
2 *4754:LO 0.000129501
3 uio_oe[6] uio_oe[7] 7.88136e-05
4 uio_oe[5] uio_oe[6] 7.88136e-05
*RES
1 *4754:LO uio_oe[6] 21.4044 
*END

*D_NET *29 0.000394042
*CONN
*P uio_oe[7] O
*I *4755:LO O *D sky130_fd_sc_hd__conb_1
*CAP
1 uio_oe[7] 0.000157614
2 *4755:LO 0.000157614
3 uio_oe[6] uio_oe[7] 7.88136e-05
*RES
1 *4755:LO uio_oe[7] 21.4044 
*END

*D_NET *30 0.00041663
*CONN
*P uio_out[0] O
*I *4740:LO O *D sky130_fd_sc_hd__conb_1
*CAP
1 uio_out[0] 0.000129501
2 *4740:LO 0.000129501
3 uio_out[0] uio_out[1] 7.88136e-05
4 uio_out[0] uo_out[7] 7.88136e-05
*RES
1 *4740:LO uio_out[0] 21.4044 
*END

*D_NET *31 0.00041663
*CONN
*P uio_out[1] O
*I *4756:LO O *D sky130_fd_sc_hd__conb_1
*CAP
1 uio_out[1] 0.000129501
2 *4756:LO 0.000129501
3 uio_out[1] uio_out[2] 7.88136e-05
4 uio_out[0] uio_out[1] 7.88136e-05
*RES
1 *4756:LO uio_out[1] 21.4044 
*END

*D_NET *32 0.00041663
*CONN
*P uio_out[2] O
*I *4757:LO O *D sky130_fd_sc_hd__conb_1
*CAP
1 uio_out[2] 0.000129501
2 *4757:LO 0.000129501
3 uio_out[2] uio_out[3] 7.88136e-05
4 uio_out[1] uio_out[2] 7.88136e-05
*RES
1 *4757:LO uio_out[2] 21.4044 
*END

*D_NET *33 0.000416758
*CONN
*P uio_out[3] O
*I *4758:LO O *D sky130_fd_sc_hd__conb_1
*CAP
1 uio_out[3] 0.000150204
2 *4758:LO 0.000150204
3 uio_out[3] uio_out[4] 3.7536e-05
4 uio_out[3] uio_out[6] 0
5 uio_out[2] uio_out[3] 7.88136e-05
*RES
1 *4758:LO uio_out[3] 21.4044 
*END

*D_NET *34 0.000437677
*CONN
*P uio_out[4] O
*I *4759:LO O *D sky130_fd_sc_hd__conb_1
*CAP
1 uio_out[4] 0.000181303
2 *4759:LO 0.000181303
3 uio_out[4] uio_out[5] 3.7536e-05
4 uio_out[3] uio_out[4] 3.7536e-05
*RES
1 *4759:LO uio_out[4] 22.4056 
*END

*D_NET *35 0.000591347
*CONN
*P uio_out[5] O
*I *4760:LO O *D sky130_fd_sc_hd__conb_1
*CAP
1 uio_out[5] 0.000255885
2 *4760:LO 0.000255885
3 uio_out[5] uio_out[6] 4.20402e-05
4 uio_out[4] uio_out[5] 3.7536e-05
*RES
1 *4760:LO uio_out[5] 23.0134 
*END

*D_NET *36 0.000421374
*CONN
*P uio_out[6] O
*I *4761:LO O *D sky130_fd_sc_hd__conb_1
*CAP
1 uio_out[6] 0.00015026
2 *4761:LO 0.00015026
3 uio_out[6] uio_out[7] 7.88136e-05
4 uio_out[3] uio_out[6] 0
5 uio_out[5] uio_out[6] 4.20402e-05
*RES
1 *4761:LO uio_out[6] 21.4044 
*END

*D_NET *37 0.00041663
*CONN
*P uio_out[7] O
*I *4762:LO O *D sky130_fd_sc_hd__conb_1
*CAP
1 uio_out[7] 0.000129501
2 *4762:LO 0.000129501
3 uio_oe[0] uio_out[7] 7.88136e-05
4 uio_out[6] uio_out[7] 7.88136e-05
*RES
1 *4762:LO uio_out[7] 21.4044 
*END

*D_NET *38 0.00133879
*CONN
*P uo_out[0] O
*I *4737:X O *D sky130_fd_sc_hd__buf_2
*CAP
1 uo_out[0] 0.000648375
2 *4737:X 0.000648375
3 uo_out[0] uo_out[1] 4.20402e-05
*RES
1 *4737:X uo_out[0] 23.6307 
*END

*D_NET *39 0.000411417
*CONN
*P uo_out[1] O
*I *4741:LO O *D sky130_fd_sc_hd__conb_1
*CAP
1 uo_out[1] 0.000145282
2 *4741:LO 0.000145282
3 uo_out[1] uo_out[2] 7.88136e-05
4 uo_out[0] uo_out[1] 4.20402e-05
*RES
1 *4741:LO uo_out[1] 21.4044 
*END

*D_NET *40 0.00041663
*CONN
*P uo_out[2] O
*I *4742:LO O *D sky130_fd_sc_hd__conb_1
*CAP
1 uo_out[2] 0.000129501
2 *4742:LO 0.000129501
3 uo_out[2] uo_out[3] 7.88136e-05
4 uo_out[1] uo_out[2] 7.88136e-05
*RES
1 *4742:LO uo_out[2] 21.4044 
*END

*D_NET *41 0.00041663
*CONN
*P uo_out[3] O
*I *4743:LO O *D sky130_fd_sc_hd__conb_1
*CAP
1 uo_out[3] 0.000129501
2 *4743:LO 0.000129501
3 uo_out[3] uo_out[4] 7.88136e-05
4 uo_out[2] uo_out[3] 7.88136e-05
*RES
1 *4743:LO uo_out[3] 21.4044 
*END

*D_NET *42 0.00041663
*CONN
*P uo_out[4] O
*I *4744:LO O *D sky130_fd_sc_hd__conb_1
*CAP
1 uo_out[4] 0.000129501
2 *4744:LO 0.000129501
3 uo_out[4] uo_out[5] 7.88136e-05
4 uo_out[3] uo_out[4] 7.88136e-05
*RES
1 *4744:LO uo_out[4] 21.4044 
*END

*D_NET *43 0.00041663
*CONN
*P uo_out[5] O
*I *4745:LO O *D sky130_fd_sc_hd__conb_1
*CAP
1 uo_out[5] 0.000129501
2 *4745:LO 0.000129501
3 uo_out[5] uo_out[6] 7.88136e-05
4 uo_out[4] uo_out[5] 7.88136e-05
*RES
1 *4745:LO uo_out[5] 21.4044 
*END

*D_NET *44 0.00041663
*CONN
*P uo_out[6] O
*I *4746:LO O *D sky130_fd_sc_hd__conb_1
*CAP
1 uo_out[6] 0.000129501
2 *4746:LO 0.000129501
3 uo_out[6] uo_out[7] 7.88136e-05
4 uo_out[5] uo_out[6] 7.88136e-05
*RES
1 *4746:LO uo_out[6] 21.4044 
*END

*D_NET *45 0.00041663
*CONN
*P uo_out[7] O
*I *4747:LO O *D sky130_fd_sc_hd__conb_1
*CAP
1 uo_out[7] 0.000129501
2 *4747:LO 0.000129501
3 uio_out[0] uo_out[7] 7.88136e-05
4 uo_out[6] uo_out[7] 7.88136e-05
*RES
1 *4747:LO uo_out[7] 21.4044 
*END

*D_NET *46 0.00102855
*CONN
*I *81:A I *D sky130_fd_sc_hd__inv_1
*I *4736:X O *D sky130_fd_sc_hd__and2_2
*CAP
1 *81:A 0.000378724
2 *4736:X 0.000378724
3 *81:A *4736:B 0.000271101
*RES
1 *4736:X *81:A 32.9348 
*END

*D_NET *47 0.000106793
*CONN
*I *82:A I *D sky130_fd_sc_hd__inv_1
*I *112:Y O *D sky130_fd_sc_hd__inv_1
*CAP
1 *82:A 5.33963e-05
2 *112:Y 5.33963e-05
*RES
1 *112:Y *82:A 19.4973 
*END

*D_NET *48 0.000686283
*CONN
*I *83:A I *D sky130_fd_sc_hd__inv_1
*I *82:Y O *D sky130_fd_sc_hd__inv_1
*CAP
1 *83:A 0.000285322
2 *82:Y 0.000285322
3 *83:A *84:A 5.38704e-05
4 *83:A *85:A 4.11274e-05
5 *83:A *86:A 0
6 *83:A *87:A 2.06413e-05
7 *83:A *110:A 0
*RES
1 *82:Y *83:A 31.8634 
*END

*D_NET *49 0.000554679
*CONN
*I *84:A I *D sky130_fd_sc_hd__inv_1
*I *83:Y O *D sky130_fd_sc_hd__inv_1
*CAP
1 *84:A 0.000250404
2 *83:Y 0.000250404
3 *84:A *87:A 0
4 *84:A *111:A 0
5 *83:A *84:A 5.38704e-05
*RES
1 *83:Y *84:A 31.0866 
*END

*D_NET *50 0.000123833
*CONN
*I *85:A I *D sky130_fd_sc_hd__inv_1
*I *84:Y O *D sky130_fd_sc_hd__inv_1
*CAP
1 *85:A 4.13527e-05
2 *84:Y 4.13527e-05
3 *83:A *85:A 4.11274e-05
*RES
1 *84:Y *85:A 19.4973 
*END

*D_NET *51 0.000697459
*CONN
*I *86:A I *D sky130_fd_sc_hd__inv_1
*I *85:Y O *D sky130_fd_sc_hd__inv_1
*CAP
1 *86:A 0.000309518
2 *85:Y 0.000309518
3 *86:A *87:A 2.51842e-05
4 *86:A *88:A 5.32398e-05
5 *83:A *86:A 0
*RES
1 *85:Y *86:A 31.8634 
*END

*D_NET *52 0.000545034
*CONN
*I *87:A I *D sky130_fd_sc_hd__inv_1
*I *86:Y O *D sky130_fd_sc_hd__inv_1
*CAP
1 *87:A 0.000249604
2 *86:Y 0.000249604
3 *83:A *87:A 2.06413e-05
4 *84:A *87:A 0
5 *86:A *87:A 2.51842e-05
*RES
1 *86:Y *87:A 31.3857 
*END

*D_NET *53 0.00011897
*CONN
*I *88:A I *D sky130_fd_sc_hd__inv_1
*I *87:Y O *D sky130_fd_sc_hd__inv_1
*CAP
1 *88:A 3.2865e-05
2 *87:Y 3.2865e-05
3 *86:A *88:A 5.32398e-05
*RES
1 *87:Y *88:A 19.4973 
*END

*D_NET *54 0.000107972
*CONN
*I *89:A I *D sky130_fd_sc_hd__inv_1
*I *88:Y O *D sky130_fd_sc_hd__inv_1
*CAP
1 *89:A 5.39858e-05
2 *88:Y 5.39858e-05
*RES
1 *88:Y *89:A 19.4973 
*END

*D_NET *55 0.000106793
*CONN
*I *90:A I *D sky130_fd_sc_hd__inv_1
*I *89:Y O *D sky130_fd_sc_hd__inv_1
*CAP
1 *90:A 5.33963e-05
2 *89:Y 5.33963e-05
*RES
1 *89:Y *90:A 19.4973 
*END

*D_NET *56 0.000155673
*CONN
*I *91:A I *D sky130_fd_sc_hd__inv_1
*I *90:Y O *D sky130_fd_sc_hd__inv_1
*CAP
1 *91:A 7.78365e-05
2 *90:Y 7.78365e-05
*RES
1 *90:Y *91:A 19.908 
*END

*D_NET *57 0.000107065
*CONN
*I *92:A I *D sky130_fd_sc_hd__inv_1
*I *81:Y O *D sky130_fd_sc_hd__inv_1
*CAP
1 *92:A 5.35325e-05
2 *81:Y 5.35325e-05
*RES
1 *81:Y *92:A 19.4973 
*END

*D_NET *58 0.000106793
*CONN
*I *93:A I *D sky130_fd_sc_hd__inv_1
*I *91:Y O *D sky130_fd_sc_hd__inv_1
*CAP
1 *93:A 5.33963e-05
2 *91:Y 5.33963e-05
*RES
1 *91:Y *93:A 19.4973 
*END

*D_NET *59 0.000106793
*CONN
*I *94:A I *D sky130_fd_sc_hd__inv_1
*I *93:Y O *D sky130_fd_sc_hd__inv_1
*CAP
1 *94:A 5.33963e-05
2 *93:Y 5.33963e-05
*RES
1 *93:Y *94:A 19.4973 
*END

*D_NET *60 0.000594947
*CONN
*I *95:A I *D sky130_fd_sc_hd__inv_1
*I *94:Y O *D sky130_fd_sc_hd__inv_1
*CAP
1 *95:A 0.000256947
2 *94:Y 0.000256947
3 *95:A *96:A 8.10532e-05
4 *95:A *97:A 0
*RES
1 *94:Y *95:A 31.8634 
*END

*D_NET *61 0.000491845
*CONN
*I *96:A I *D sky130_fd_sc_hd__inv_1
*I *95:Y O *D sky130_fd_sc_hd__inv_1
*CAP
1 *96:A 0.000197048
2 *95:Y 0.000197048
3 *96:A *97:A 1.66955e-05
4 *95:A *96:A 8.10532e-05
*RES
1 *95:Y *96:A 30.6313 
*END

*D_NET *62 0.000843652
*CONN
*I *97:A I *D sky130_fd_sc_hd__inv_1
*I *96:Y O *D sky130_fd_sc_hd__inv_1
*CAP
1 *97:A 0.000275233
2 *96:Y 0.000275233
3 *97:A *98:A 0.000276489
4 *95:A *97:A 0
5 *96:A *97:A 1.66955e-05
*RES
1 *96:Y *97:A 31.8634 
*END

*D_NET *63 0.000859698
*CONN
*I *98:A I *D sky130_fd_sc_hd__inv_1
*I *97:Y O *D sky130_fd_sc_hd__inv_1
*CAP
1 *98:A 0.000226123
2 *97:Y 0.000226123
3 *98:A *99:A 9.57215e-05
4 *98:A *100:A 3.52408e-05
5 *97:A *98:A 0.000276489
*RES
1 *97:Y *98:A 32.6937 
*END

*D_NET *64 0.000156494
*CONN
*I *99:A I *D sky130_fd_sc_hd__inv_1
*I *98:Y O *D sky130_fd_sc_hd__inv_1
*CAP
1 *99:A 3.03862e-05
2 *98:Y 3.03862e-05
3 *98:A *99:A 9.57215e-05
*RES
1 *98:Y *99:A 19.4973 
*END

*D_NET *65 0.000127785
*CONN
*I *100:A I *D sky130_fd_sc_hd__inv_1
*I *99:Y O *D sky130_fd_sc_hd__inv_1
*CAP
1 *100:A 4.62722e-05
2 *99:Y 4.62722e-05
3 *98:A *100:A 3.52408e-05
*RES
1 *99:Y *100:A 19.4973 
*END

*D_NET *66 0.000106793
*CONN
*I *101:A I *D sky130_fd_sc_hd__inv_1
*I *100:Y O *D sky130_fd_sc_hd__inv_1
*CAP
1 *101:A 5.33963e-05
2 *100:Y 5.33963e-05
*RES
1 *100:Y *101:A 19.4973 
*END

*D_NET *67 0.000106793
*CONN
*I *102:A I *D sky130_fd_sc_hd__inv_1
*I *101:Y O *D sky130_fd_sc_hd__inv_1
*CAP
1 *102:A 5.33963e-05
2 *101:Y 5.33963e-05
*RES
1 *101:Y *102:A 19.4973 
*END

*D_NET *68 0.000106815
*CONN
*I *103:A I *D sky130_fd_sc_hd__inv_1
*I *92:Y O *D sky130_fd_sc_hd__inv_1
*CAP
1 *103:A 5.34077e-05
2 *92:Y 5.34077e-05
*RES
1 *92:Y *103:A 19.4973 
*END

*D_NET *69 0.000691672
*CONN
*I *104:A I *D sky130_fd_sc_hd__inv_1
*I *102:Y O *D sky130_fd_sc_hd__inv_1
*CAP
1 *104:A 0.000268056
2 *102:Y 0.000268056
3 *104:A *105:A 0.000155559
*RES
1 *102:Y *104:A 31.4973 
*END

*D_NET *70 0.000587521
*CONN
*I *105:A I *D sky130_fd_sc_hd__inv_1
*I *104:Y O *D sky130_fd_sc_hd__inv_1
*CAP
1 *105:A 0.000215981
2 *104:Y 0.000215981
3 *104:A *105:A 0.000155559
*RES
1 *104:Y *105:A 31.3902 
*END

*D_NET *71 8.81969e-05
*CONN
*I *4737:A I *D sky130_fd_sc_hd__buf_2
*I *105:Y O *D sky130_fd_sc_hd__inv_1
*CAP
1 *4737:A 4.40985e-05
2 *105:Y 4.40985e-05
*RES
1 *105:Y *4737:A 19.3411 
*END

*D_NET *72 0.000124972
*CONN
*I *106:A I *D sky130_fd_sc_hd__inv_1
*I *103:Y O *D sky130_fd_sc_hd__inv_1
*CAP
1 *106:A 6.2486e-05
2 *103:Y 6.2486e-05
*RES
1 *103:Y *106:A 19.4973 
*END

*D_NET *73 0.000165431
*CONN
*I *107:A I *D sky130_fd_sc_hd__inv_1
*I *106:Y O *D sky130_fd_sc_hd__inv_1
*CAP
1 *107:A 7.29483e-05
2 *106:Y 7.29483e-05
3 *107:A *108:A 1.95349e-05
*RES
1 *106:Y *107:A 19.8634 
*END

*D_NET *74 0.000354066
*CONN
*I *108:A I *D sky130_fd_sc_hd__inv_1
*I *107:Y O *D sky130_fd_sc_hd__inv_1
*CAP
1 *108:A 0.000167266
2 *107:Y 0.000167266
3 *108:A *111:A 0
4 *107:A *108:A 1.95349e-05
*RES
1 *107:Y *108:A 29.8098 
*END

*D_NET *75 0.000226407
*CONN
*I *109:A I *D sky130_fd_sc_hd__inv_1
*I *108:Y O *D sky130_fd_sc_hd__inv_1
*CAP
1 *109:A 0.000113204
2 *108:Y 0.000113204
*RES
1 *108:Y *109:A 20.3545 
*END

*D_NET *76 0.000708519
*CONN
*I *110:A I *D sky130_fd_sc_hd__inv_1
*I *109:Y O *D sky130_fd_sc_hd__inv_1
*CAP
1 *110:A 0.000304919
2 *109:Y 0.000304919
3 *110:A *111:A 5.82452e-05
4 *110:A *112:A 4.04353e-05
5 *83:A *110:A 0
*RES
1 *109:Y *110:A 31.8634 
*END

*D_NET *77 0.000475852
*CONN
*I *111:A I *D sky130_fd_sc_hd__inv_1
*I *110:Y O *D sky130_fd_sc_hd__inv_1
*CAP
1 *111:A 0.000208803
2 *110:Y 0.000208803
3 *84:A *111:A 0
4 *108:A *111:A 0
5 *110:A *111:A 5.82452e-05
*RES
1 *110:Y *111:A 30.975 
*END

*D_NET *78 0.000126223
*CONN
*I *112:A I *D sky130_fd_sc_hd__inv_1
*I *111:Y O *D sky130_fd_sc_hd__inv_1
*CAP
1 *112:A 4.28939e-05
2 *111:Y 4.28939e-05
3 *110:A *112:A 4.04353e-05
*RES
1 *111:Y *112:A 19.4973 
*END

*D_NET *79 0.00137272
*CONN
*I *4736:A I *D sky130_fd_sc_hd__and2_2
*I *4738:X O *D sky130_fd_sc_hd__clkdlybuf4s25_1
*CAP
1 *4736:A 0.000586315
2 *4738:X 0.000586315
3 *4736:A *4736:B 0.000200089
*RES
1 *4738:X *4736:A 29.4036 
*END

*D_NET *80 0.000792081
*CONN
*I *4736:B I *D sky130_fd_sc_hd__and2_2
*I *4739:X O *D sky130_fd_sc_hd__clkdlybuf4s25_1
*CAP
1 *4736:B 0.000160445
2 *4739:X 0.000160445
3 *81:A *4736:B 0.000271101
4 *4736:A *4736:B 0.000200089
*RES
1 *4739:X *4736:B 23.2607 
*END
